*SPEF "ieee 1481-1999"
*DESIGN "noc_top"
*DATE "11:11:11 Fri 11 11, 1111"
*VENDOR "OpenRCX"
*PROGRAM "Parallel Extraction"
*VERSION "1.0"
*DESIGN_FLOW "NAME_SCOPE LOCAL" "PIN_CAP NONE"
*DIVIDER /
*DELIMITER :
*BUS_DELIMITER []
*T_UNIT 1 NS
*C_UNIT 1 PF
*R_UNIT 1 OHM
*L_UNIT 1 HENRY

*NAME_MAP
*3 clk
*4 debug_out[0]
*5 debug_out[1]
*6 debug_out[2]
*7 debug_out[3]
*8 debug_out[4]
*9 debug_out[5]
*10 debug_out[6]
*11 debug_out[7]
*12 rst
*13 _00_
*14 _01_
*15 _02_
*16 _03_
*17 _04_
*18 _05_
*19 _06_
*20 _07_
*21 _08_
*22 _09_
*23 _10_
*24 _11_
*25 _12_
*26 _13_
*27 _14_
*28 _15_
*29 _16_
*30 _17_
*31 _18_
*32 _19_
*33 _20_
*34 _21_
*35 _22_
*36 _23_
*37 _24_
*38 clknet_0_clk
*39 clknet_1_0__leaf_clk
*40 clknet_1_1__leaf_clk
*41 net1
*42 net10
*43 net11
*44 net12
*45 net13
*46 net14
*47 net15
*48 net2
*49 net3
*50 net4
*51 net5
*52 net6
*53 net7
*54 net8
*55 net9
*56 FILLER_0_0_57
*57 FILLER_0_1_28
*58 FILLER_0_1_3
*59 FILLER_0_1_52
*60 FILLER_0_1_57
*61 FILLER_0_2_25
*62 FILLER_0_2_29
*63 FILLER_0_2_3
*64 FILLER_0_3_55
*65 FILLER_0_3_57
*66 FILLER_0_4_15
*67 FILLER_0_4_23
*68 FILLER_0_4_3
*69 FILLER_0_4_55
*70 FILLER_0_5_15
*71 FILLER_0_5_3
*72 FILLER_0_5_36
*73 FILLER_0_5_44
*74 FILLER_0_5_57
*75 FILLER_0_6_27
*76 FILLER_0_6_29
*77 FILLER_0_6_3
*78 FILLER_0_7_57
*79 FILLER_0_8_3
*80 FILLER_0_8_44
*81 FILLER_0_8_56
*82 FILLER_0_9_19
*83 FILLER_0_9_27
*84 FILLER_0_9_3
*85 FILLER_0_9_32
*86 FILLER_0_9_48
*87 FILLER_0_9_57
*88 PHY_0
*89 PHY_1
*90 PHY_10
*91 PHY_11
*92 PHY_12
*93 PHY_13
*94 PHY_14
*95 PHY_15
*96 PHY_16
*97 PHY_17
*98 PHY_18
*99 PHY_19
*100 PHY_2
*101 PHY_3
*102 PHY_4
*103 PHY_5
*104 PHY_6
*105 PHY_7
*106 PHY_8
*107 PHY_9
*108 TAP_20
*109 TAP_21
*110 TAP_22
*111 TAP_23
*112 TAP_24
*113 TAP_25
*114 TAP_26
*115 TAP_27
*116 TAP_28
*117 TAP_29
*118 TAP_30
*119 TAP_31
*120 _25_
*121 _26_
*122 _27_
*123 _28_
*124 _29_
*125 _30_
*126 _31_
*127 _32_
*128 _33_
*129 _34_
*130 _35_
*131 _36_
*132 _37_
*133 _38_
*134 _39_
*135 _40_
*136 _41_
*137 _42_
*138 _43_
*139 _44_
*140 _45_
*141 _46_
*142 _47_
*143 _48_
*144 _49_
*145 _50_
*146 _51_
*147 _52_
*148 _53_
*149 _54_
*150 _55_
*151 _56_
*152 _57_
*153 clkbuf_0_clk
*154 clkbuf_1_0__f_clk
*155 clkbuf_1_1__f_clk
*156 hold1
*157 hold2
*158 hold3
*159 hold4
*160 hold5
*161 hold6
*162 input1
*163 output2
*164 output3
*165 output4
*166 output5
*167 output6
*168 output7
*169 output8
*170 output9

*PORTS
clk I
debug_out[0] O
debug_out[1] O
debug_out[2] O
debug_out[3] O
debug_out[4] O
debug_out[5] O
debug_out[6] O
debug_out[7] O
rst I

*D_NET *3 0.00349816
*CONN
*P clk I
*I *153:A I *D sky130_fd_sc_hd__clkbuf_16
*CAP
1 clk 0.00158022
2 *153:A 0.00158022
3 *153:A *139:A 4.33899e-05
4 *153:A *146:RESET_B 9.84673e-05
5 *153:A *147:RESET_B 9.83388e-05
6 *153:A *41:18 9.75171e-05
*RES
1 clk *153:A 45.3714 
*END

*D_NET *4 0.0049376
*CONN
*P debug_out[0] O
*I *163:X O *D sky130_fd_sc_hd__clkbuf_4
*CAP
1 debug_out[0] 0.00223238
2 *163:X 0.00223238
3 debug_out[0] debug_out[3] 5.08608e-05
4 debug_out[0] *154:A 0.000111732
5 debug_out[0] *163:A 3.22347e-05
6 debug_out[0] *166:A 0
7 debug_out[0] *168:A 0.000138733
8 debug_out[0] *30:14 0.000139287
9 debug_out[0] *51:25 0
*RES
1 *163:X debug_out[0] 36.7355 
*END

*D_NET *5 0.00117396
*CONN
*P debug_out[1] O
*I *164:X O *D sky130_fd_sc_hd__buf_2
*CAP
1 debug_out[1] 0.000535897
2 *164:X 0.000535897
3 debug_out[1] *164:A 0.000102168
*RES
1 *164:X debug_out[1] 23.675 
*END

*D_NET *6 0.00205132
*CONN
*P debug_out[2] O
*I *165:X O *D sky130_fd_sc_hd__clkbuf_4
*CAP
1 debug_out[2] 0.000801072
2 *165:X 0.000801072
3 debug_out[2] *162:A 0.000434321
4 debug_out[2] *41:14 1.48543e-05
*RES
1 *165:X debug_out[2] 27.9429 
*END

*D_NET *7 0.000800221
*CONN
*P debug_out[3] O
*I *166:X O *D sky130_fd_sc_hd__clkbuf_4
*CAP
1 debug_out[3] 0.00037468
2 *166:X 0.00037468
3 debug_out[3] *145:CLK 0
4 debug_out[0] debug_out[3] 5.08608e-05
*RES
1 *166:X debug_out[3] 22.1732 
*END

*D_NET *8 0.00148675
*CONN
*P debug_out[4] O
*I *167:X O *D sky130_fd_sc_hd__clkbuf_4
*CAP
1 debug_out[4] 0.000565041
2 *167:X 0.000565041
3 debug_out[4] *167:A 0.000356664
*RES
1 *167:X debug_out[4] 22.3735 
*END

*D_NET *9 0.00128803
*CONN
*P debug_out[5] O
*I *168:X O *D sky130_fd_sc_hd__clkbuf_4
*CAP
1 debug_out[5] 0.000427517
2 *168:X 0.000427517
3 debug_out[5] *154:A 0.000100037
4 debug_out[5] *163:A 0.000271329
5 debug_out[5] *30:14 6.16357e-05
*RES
1 *168:X debug_out[5] 23.5857 
*END

*D_NET *10 0.000975351
*CONN
*P debug_out[6] O
*I *169:X O *D sky130_fd_sc_hd__clkbuf_4
*CAP
1 debug_out[6] 0.000284118
2 *169:X 0.000284118
3 debug_out[6] debug_out[7] 0.000407115
*RES
1 *169:X debug_out[6] 21.8875 
*END

*D_NET *11 0.00236435
*CONN
*P debug_out[7] O
*I *170:X O *D sky130_fd_sc_hd__clkbuf_4
*CAP
1 debug_out[7] 0.000945185
2 *170:X 0.000945185
3 debug_out[7] *169:A 1.47872e-05
4 debug_out[7] *170:A 5.20751e-05
5 debug_out[6] debug_out[7] 0.000407115
*RES
1 *170:X debug_out[7] 29.8357 
*END

*D_NET *12 0.000946103
*CONN
*P rst I
*I *162:A I *D sky130_fd_sc_hd__clkbuf_4
*CAP
1 rst 0.000255891
2 *162:A 0.000255891
3 debug_out[2] *162:A 0.000434321
*RES
1 rst *162:A 22.3505 
*END

*D_NET *13 0.000372003
*CONN
*I *145:D I *D sky130_fd_sc_hd__dfrtp_1
*I *120:Y O *D sky130_fd_sc_hd__inv_2
*CAP
1 *145:D 0.000135298
2 *120:Y 0.000135298
3 *145:D *122:B 7.74135e-05
4 *145:D *137:A 2.13481e-06
5 *145:D *145:CLK 8.86129e-06
6 *145:D *145:RESET_B 1.29975e-05
*RES
1 *120:Y *145:D 29.6402 
*END

*D_NET *14 0.00088589
*CONN
*I *146:D I *D sky130_fd_sc_hd__dfrtp_1
*I *124:X O *D sky130_fd_sc_hd__clkbuf_1
*CAP
1 *146:D 0.000242961
2 *124:X 0.000242961
3 *146:D *168:A 0.000127939
4 *146:D *30:14 0.000272028
*RES
1 *124:X *146:D 31.8321 
*END

*D_NET *15 0.000391727
*CONN
*I *147:D I *D sky130_fd_sc_hd__dfrtp_1
*I *125:Y O *D sky130_fd_sc_hd__xnor2_1
*CAP
1 *147:D 0.000159835
2 *125:Y 0.000159835
3 *147:D *125:A 1.20457e-05
4 *147:D *147:CLK 6.00106e-05
*RES
1 *125:Y *147:D 20.7964 
*END

*D_NET *16 0.000722256
*CONN
*I *148:D I *D sky130_fd_sc_hd__dfrtp_1
*I *129:X O *D sky130_fd_sc_hd__clkbuf_1
*CAP
1 *148:D 0.000195998
2 *129:X 0.000195998
3 *148:D *122:B 0.000264248
4 *148:D *137:A 6.12436e-05
5 *148:D *39:16 4.76891e-06
*RES
1 *129:X *148:D 32.0286 
*END

*D_NET *17 0.000608534
*CONN
*I *149:D I *D sky130_fd_sc_hd__dfrtp_1
*I *130:X O *D sky130_fd_sc_hd__xor2_1
*CAP
1 *149:D 0.000165991
2 *130:X 0.000165991
3 *149:D *164:A 6.87672e-05
4 *149:D *32:52 0.000133851
5 *149:D *32:71 7.01339e-05
6 *149:D *53:37 3.79877e-06
*RES
1 *130:X *149:D 30.9214 
*END

*D_NET *18 0.00141305
*CONN
*I *150:D I *D sky130_fd_sc_hd__dfrtp_1
*I *133:Y O *D sky130_fd_sc_hd__nor2_1
*CAP
1 *150:D 0.000279147
2 *133:Y 0.000279147
3 *150:D *131:A 9.96487e-05
4 *150:D *133:A 0.000155197
5 *150:D *133:B 1.98839e-05
6 *150:D *164:A 0.000198013
7 *150:D *32:33 0.000123947
8 *150:D *35:10 0.000258063
*RES
1 *133:Y *150:D 35.0464 
*END

*D_NET *19 0.000719862
*CONN
*I *151:D I *D sky130_fd_sc_hd__dfrtp_1
*I *134:X O *D sky130_fd_sc_hd__xor2_1
*CAP
1 *151:D 8.82682e-05
2 *134:X 8.82682e-05
3 *151:D *136:B 5.99191e-05
4 *151:D *151:CLK 7.83175e-05
5 *151:D *152:D 0.000185942
6 *151:D *157:A 5.49544e-05
7 *151:D *170:A 7.74135e-05
8 *151:D *55:16 8.67797e-05
*RES
1 *134:X *151:D 31.3321 
*END

*D_NET *20 0.00100247
*CONN
*I *152:D I *D sky130_fd_sc_hd__dfrtp_1
*I *136:X O *D sky130_fd_sc_hd__xor2_1
*CAP
1 *152:D 0.000365292
2 *136:X 0.000365292
3 *152:D *136:B 1.02132e-05
4 *152:D *152:CLK 7.57312e-05
5 *151:D *152:D 0.000185942
*RES
1 *136:X *152:D 34.6714 
*END

*D_NET *21 0.000848683
*CONN
*I *145:RESET_B I *D sky130_fd_sc_hd__dfrtp_1
*I *137:Y O *D sky130_fd_sc_hd__inv_2
*CAP
1 *145:RESET_B 0.000256958
2 *137:Y 0.000256958
3 *145:RESET_B *122:B 4.42631e-05
4 *145:RESET_B *137:A 0.000173362
5 *145:RESET_B *145:CLK 9.9129e-05
6 *145:RESET_B *39:16 5.01504e-06
7 *145:D *145:RESET_B 1.29975e-05
*RES
1 *137:Y *145:RESET_B 22.7018 
*END

*D_NET *22 0.00132391
*CONN
*I *146:RESET_B I *D sky130_fd_sc_hd__dfrtp_1
*I *138:Y O *D sky130_fd_sc_hd__inv_2
*CAP
1 *146:RESET_B 0.000382576
2 *138:Y 0.000382576
3 *146:RESET_B *124:A 0
4 *146:RESET_B *125:A 3.42301e-05
5 *146:RESET_B *165:A 0.000362397
6 *146:RESET_B *32:14 1.01912e-05
7 *146:RESET_B *41:14 1.73875e-05
8 *146:RESET_B *49:14 3.60839e-05
9 *153:A *146:RESET_B 9.84673e-05
*RES
1 *138:Y *146:RESET_B 26.1571 
*END

*D_NET *23 0.000880577
*CONN
*I *147:RESET_B I *D sky130_fd_sc_hd__dfrtp_1
*I *139:Y O *D sky130_fd_sc_hd__inv_2
*CAP
1 *147:RESET_B 0.000359929
2 *139:Y 0.000359929
3 *147:RESET_B *50:12 6.2379e-05
4 *153:A *147:RESET_B 9.83388e-05
*RES
1 *139:Y *147:RESET_B 24.5054 
*END

*D_NET *24 0.000640017
*CONN
*I *148:RESET_B I *D sky130_fd_sc_hd__dfrtp_1
*I *140:Y O *D sky130_fd_sc_hd__inv_2
*CAP
1 *148:RESET_B 0.000181691
2 *140:Y 0.000181691
3 *148:RESET_B *120:A 2.84026e-05
4 *148:RESET_B *137:A 0.00010049
5 *148:RESET_B *48:12 5.14943e-05
6 *148:RESET_B *48:36 9.62478e-05
*RES
1 *140:Y *148:RESET_B 22.6036 
*END

*D_NET *25 0.000358092
*CONN
*I *149:RESET_B I *D sky130_fd_sc_hd__dfrtp_1
*I *141:Y O *D sky130_fd_sc_hd__inv_2
*CAP
1 *149:RESET_B 0.00012843
2 *141:Y 0.00012843
3 *149:RESET_B *167:A 3.27526e-05
4 *149:RESET_B *52:27 6.84805e-05
*RES
1 *141:Y *149:RESET_B 20.5232 
*END

*D_NET *26 0.000395749
*CONN
*I *150:RESET_B I *D sky130_fd_sc_hd__dfrtp_1
*I *142:Y O *D sky130_fd_sc_hd__inv_2
*CAP
1 *150:RESET_B 9.11073e-05
2 *142:Y 9.11073e-05
3 *150:RESET_B *41:41 9.96487e-05
4 *150:RESET_B *41:49 2.24724e-05
5 *150:RESET_B *53:8 9.14132e-05
*RES
1 *142:Y *150:RESET_B 20.5232 
*END

*D_NET *27 0.000286836
*CONN
*I *151:RESET_B I *D sky130_fd_sc_hd__dfrtp_1
*I *143:Y O *D sky130_fd_sc_hd__inv_2
*CAP
1 *151:RESET_B 0.000127459
2 *143:Y 0.000127459
3 *151:RESET_B *135:B 3.19174e-05
*RES
1 *143:Y *151:RESET_B 20.55 
*END

*D_NET *28 0.000816128
*CONN
*I *152:RESET_B I *D sky130_fd_sc_hd__dfrtp_1
*I *144:Y O *D sky130_fd_sc_hd__inv_2
*CAP
1 *152:RESET_B 0.000136357
2 *144:Y 0.000136357
3 *152:RESET_B *144:A 0.000280046
4 *152:RESET_B *40:10 3.2923e-05
5 *152:RESET_B *40:23 0.000171355
6 *152:RESET_B *41:63 5.90911e-05
*RES
1 *144:Y *152:RESET_B 22.675 
*END

*D_NET *29 0.00245929
*CONN
*I *123:A I *D sky130_fd_sc_hd__and2_1
*I *125:B I *D sky130_fd_sc_hd__xnor2_1
*I *121:Y O *D sky130_fd_sc_hd__nand2_1
*CAP
1 *123:A 0.000182869
2 *125:B 0.000179168
3 *121:Y 0.000305416
4 *29:8 0.000667452
5 *123:A *155:A 0.000170558
6 *123:A *164:A 0.000124749
7 *125:B *127:A2 5.29529e-05
8 *125:B *127:B1 6.27272e-06
9 *125:B *154:A 0.000308141
10 *125:B *155:A 0.000129268
11 *125:B *164:A 0.000186835
12 *125:B *168:A 0.000126409
13 *29:8 *121:A 1.52013e-05
14 *29:8 *38:8 4.00276e-06
*RES
1 *121:Y *29:8 17.2107 
2 *29:8 *125:B 19.3893 
3 *29:8 *123:A 17.6214 
*END

*D_NET *30 0.00471463
*CONN
*I *123:B I *D sky130_fd_sc_hd__and2_1
*I *122:X O *D sky130_fd_sc_hd__or2_1
*CAP
1 *123:B 0
2 *122:X 0.00120025
3 *30:14 0.00120025
4 *30:14 *122:A 0.000332644
5 *30:14 *124:A 0.000801247
6 *30:14 *154:A 0.000123182
7 *30:14 *163:A 8.33709e-05
8 *30:14 *168:A 0.000313969
9 *30:14 *39:10 0.000186765
10 debug_out[0] *30:14 0.000139287
11 debug_out[5] *30:14 6.16357e-05
12 *146:D *30:14 0.000272028
*RES
1 *122:X *30:14 46.7286 
2 *30:14 *123:B 9.3 
*END

*D_NET *31 0.00195559
*CONN
*I *124:A I *D sky130_fd_sc_hd__clkbuf_1
*I *123:X O *D sky130_fd_sc_hd__and2_1
*CAP
1 *124:A 0.000544757
2 *123:X 0.000544757
3 *124:A *125:A 2.16394e-05
4 *124:A *126:D 4.04292e-05
5 *124:A *32:14 2.75651e-06
6 *146:RESET_B *124:A 0
7 *30:14 *124:A 0.000801247
*RES
1 *123:X *124:A 40.4571 
*END

*D_NET *32 0.00693823
*CONN
*I *132:A2 I *D sky130_fd_sc_hd__a21oi_1
*I *130:B I *D sky130_fd_sc_hd__xor2_1
*I *135:D I *D sky130_fd_sc_hd__and4_1
*I *131:C I *D sky130_fd_sc_hd__and3_1
*I *128:A_N I *D sky130_fd_sc_hd__and2b_1
*I *126:X O *D sky130_fd_sc_hd__and4_2
*CAP
1 *132:A2 0.000204483
2 *130:B 0
3 *135:D 0.000438798
4 *131:C 6.00062e-05
5 *128:A_N 3.00918e-05
6 *126:X 0.000518374
7 *32:71 0.000291529
8 *32:52 0.000717121
9 *32:33 0.00074185
10 *32:14 0.00103903
11 *128:A_N *121:A 0
12 *128:A_N *154:A 1.67662e-05
13 *132:A2 *130:A 0.000143427
14 *132:A2 *132:A1 0.000149235
15 *132:A2 *52:29 1.65914e-05
16 *135:D *134:A 2.36643e-05
17 *135:D *135:A 0.000308657
18 *135:D *135:B 9.83388e-05
19 *135:D *135:C 5.49489e-05
20 *135:D *158:A 5.91598e-05
21 *135:D *52:29 0.000165988
22 *32:14 *126:D 0.000283671
23 *32:14 *51:25 0.000288277
24 *32:33 *150:CLK 0.000116733
25 *32:33 *154:A 0.000111922
26 *32:33 *155:A 0.000262598
27 *32:33 *164:A 6.20947e-05
28 *32:33 *35:10 5.33614e-05
29 *32:52 *131:A 3.87535e-05
30 *32:52 *149:CLK 0.00022102
31 *32:52 *164:A 8.07792e-06
32 *32:52 *53:37 2.05823e-05
33 *32:71 *52:29 5.2198e-05
34 *124:A *32:14 2.75651e-06
35 *146:RESET_B *32:14 1.01912e-05
36 *149:D *32:52 0.000133851
37 *149:D *32:71 7.01339e-05
38 *150:D *32:33 0.000123947
*RES
1 *126:X *32:14 21.9527 
2 *32:14 *128:A_N 14.3804 
3 *32:14 *32:33 15.3839 
4 *32:33 *131:C 10.5321 
5 *32:33 *32:52 9.39286 
6 *32:52 *135:D 20.6393 
7 *32:52 *32:71 6.48214 
8 *32:71 *130:B 9.3 
9 *32:71 *132:A2 22.6214 
*END

*D_NET *33 0.000309409
*CONN
*I *128:B I *D sky130_fd_sc_hd__and2b_1
*I *127:X O *D sky130_fd_sc_hd__a31o_1
*CAP
1 *128:B 3.66978e-05
2 *127:X 3.66978e-05
3 *128:B *48:57 0.000186817
4 *128:B *49:26 4.91968e-05
*RES
1 *127:X *128:B 20.3679 
*END

*D_NET *34 0.000982156
*CONN
*I *129:A I *D sky130_fd_sc_hd__clkbuf_1
*I *128:X O *D sky130_fd_sc_hd__and2b_1
*CAP
1 *129:A 0.000270349
2 *128:X 0.000270349
3 *129:A *120:A 0.000147091
4 *129:A *48:36 0.000226867
5 *129:A *48:57 3.65101e-05
6 *129:A *49:26 3.09893e-05
*RES
1 *128:X *129:A 25.0643 
*END

*D_NET *35 0.00284619
*CONN
*I *133:A I *D sky130_fd_sc_hd__nor2_1
*I *134:B I *D sky130_fd_sc_hd__xor2_1
*I *131:X O *D sky130_fd_sc_hd__and3_1
*CAP
1 *133:A 0.000169816
2 *134:B 0.000372699
3 *131:X 0.000188389
4 *35:10 0.000730904
5 *133:A *133:B 7.34098e-05
6 *133:A *164:A 6.14702e-06
7 *134:B *134:A 0.000628672
8 *134:B *136:B 3.43983e-05
9 *134:B *158:A 6.8529e-05
10 *35:10 *135:B 5.33005e-05
11 *35:10 *149:CLK 5.33005e-05
12 *150:D *133:A 0.000155197
13 *150:D *35:10 0.000258063
14 *32:33 *35:10 5.33614e-05
*RES
1 *131:X *35:10 17.8 
2 *35:10 *134:B 21.7464 
3 *35:10 *133:A 17.5321 
*END

*D_NET *36 0.00121098
*CONN
*I *133:B I *D sky130_fd_sc_hd__nor2_1
*I *132:Y O *D sky130_fd_sc_hd__a21oi_1
*CAP
1 *133:B 0.000372818
2 *132:Y 0.000372818
3 *133:B *132:B1 1.32056e-05
4 *133:B *164:A 0.000358841
5 *133:A *133:B 7.34098e-05
6 *150:D *133:B 1.98839e-05
*RES
1 *132:Y *133:B 26.1536 
*END

*D_NET *37 0.00108716
*CONN
*I *136:B I *D sky130_fd_sc_hd__xor2_1
*I *135:X O *D sky130_fd_sc_hd__and4_1
*CAP
1 *136:B 0.000414272
2 *135:X 0.000414272
3 *136:B *134:A 0.000154086
4 *134:B *136:B 3.43983e-05
5 *151:D *136:B 5.99191e-05
6 *152:D *136:B 1.02132e-05
*RES
1 *135:X *136:B 26.1893 
*END

*D_NET *38 0.00300123
*CONN
*I *155:A I *D sky130_fd_sc_hd__clkbuf_16
*I *154:A I *D sky130_fd_sc_hd__clkbuf_16
*I *153:X O *D sky130_fd_sc_hd__clkbuf_16
*CAP
1 *155:A 0.000127055
2 *154:A 0.000439144
3 *153:X 5.35717e-05
4 *38:8 0.000619771
5 *154:A *147:CLK 0.000101777
6 *154:A *163:A 6.87662e-05
7 *154:A *168:A 0.000241681
8 *154:A *51:10 0
9 *155:A *164:A 1.12578e-05
10 debug_out[0] *154:A 0.000111732
11 debug_out[5] *154:A 0.000100037
12 *123:A *155:A 0.000170558
13 *125:B *154:A 0.000308141
14 *125:B *155:A 0.000129268
15 *128:A_N *154:A 1.67662e-05
16 *29:8 *38:8 4.00276e-06
17 *30:14 *154:A 0.000123182
18 *32:33 *154:A 0.000111922
19 *32:33 *155:A 0.000262598
*RES
1 *153:X *38:8 14.3357 
2 *38:8 *154:A 25.8714 
3 *38:8 *155:A 18.2107 
*END

*D_NET *39 0.00380547
*CONN
*I *146:CLK I *D sky130_fd_sc_hd__dfrtp_1
*I *147:CLK I *D sky130_fd_sc_hd__dfrtp_1
*I *148:CLK I *D sky130_fd_sc_hd__dfrtp_1
*I *145:CLK I *D sky130_fd_sc_hd__dfrtp_1
*I *154:X O *D sky130_fd_sc_hd__clkbuf_16
*CAP
1 *146:CLK 1.80146e-05
2 *147:CLK 0.000296161
3 *148:CLK 0
4 *145:CLK 0.000191462
5 *154:X 0.000177538
6 *39:40 0.000722227
7 *39:16 0.000567973
8 *39:10 0.000962101
9 *145:CLK *122:B 3.84884e-05
10 *145:CLK *137:A 0.000139305
11 *147:CLK *125:A 0.000167448
12 *39:10 *48:12 3.42301e-05
13 *39:40 *122:B 0
14 *39:40 *48:12 2.41982e-05
15 debug_out[3] *145:CLK 0
16 *145:D *145:CLK 8.86129e-06
17 *145:RESET_B *145:CLK 9.9129e-05
18 *145:RESET_B *39:16 5.01504e-06
19 *147:D *147:CLK 6.00106e-05
20 *148:D *39:16 4.76891e-06
21 *154:A *147:CLK 0.000101777
22 *30:14 *39:10 0.000186765
*RES
1 *154:X *39:10 16.6036 
2 *39:10 *39:16 9.05357 
3 *39:16 *145:CLK 22.5143 
4 *39:16 *148:CLK 9.3 
5 *39:10 *39:40 11.1071 
6 *39:40 *147:CLK 24.3536 
7 *39:40 *146:CLK 9.83571 
*END

*D_NET *40 0.00376271
*CONN
*I *149:CLK I *D sky130_fd_sc_hd__dfrtp_1
*I *150:CLK I *D sky130_fd_sc_hd__dfrtp_1
*I *151:CLK I *D sky130_fd_sc_hd__dfrtp_1
*I *152:CLK I *D sky130_fd_sc_hd__dfrtp_1
*I *155:X O *D sky130_fd_sc_hd__clkbuf_16
*CAP
1 *149:CLK 8.82171e-05
2 *150:CLK 0.00011534
3 *151:CLK 0.000161887
4 *152:CLK 0.000326682
5 *155:X 0.00021681
6 *40:32 0.000437274
7 *40:23 0.000471962
8 *40:10 0.00061985
9 *149:CLK *135:B 3.37161e-05
10 *149:CLK *53:37 7.18257e-05
11 *149:CLK *54:14 3.69047e-06
12 *151:CLK *55:16 1.34548e-05
13 *152:CLK *55:16 7.57312e-05
14 *40:10 *41:63 5.8996e-05
15 *40:23 *55:16 3.66572e-05
16 *40:32 *135:B 0.000186506
17 *40:32 *54:14 9.47282e-05
18 *151:D *151:CLK 7.83175e-05
19 *152:D *152:CLK 7.57312e-05
20 *152:RESET_B *40:10 3.2923e-05
21 *152:RESET_B *40:23 0.000171355
22 *32:33 *150:CLK 0.000116733
23 *32:52 *149:CLK 0.00022102
24 *35:10 *149:CLK 5.33005e-05
*RES
1 *155:X *40:10 17.1036 
2 *40:10 *152:CLK 19.675 
3 *40:10 *40:23 6.75 
4 *40:23 *151:CLK 12.3 
5 *40:23 *40:32 5.05357 
6 *40:32 *150:CLK 20.55 
7 *40:32 *149:CLK 11.8893 
*END

*D_NET *41 0.00919174
*CONN
*I *141:A I *D sky130_fd_sc_hd__inv_2
*I *143:A I *D sky130_fd_sc_hd__inv_2
*I *144:A I *D sky130_fd_sc_hd__inv_2
*I *140:A I *D sky130_fd_sc_hd__inv_2
*I *137:A I *D sky130_fd_sc_hd__inv_2
*I *142:A I *D sky130_fd_sc_hd__inv_2
*I *139:A I *D sky130_fd_sc_hd__inv_2
*I *138:A I *D sky130_fd_sc_hd__inv_2
*I *162:X O *D sky130_fd_sc_hd__clkbuf_4
*CAP
1 *141:A 0.000279207
2 *143:A 5.56913e-05
3 *144:A 0.00016044
4 *140:A 0
5 *137:A 0.000514427
6 *142:A 0
7 *139:A 1.78509e-05
8 *138:A 0
9 *162:X 0.000472846
10 *41:63 0.00109925
11 *41:53 0.000846904
12 *41:49 0.00100482
13 *41:41 0.00130917
14 *41:32 0.000333101
15 *41:18 6.16316e-05
16 *41:14 0.000667245
17 *137:A *121:A 0
18 *137:A *122:B 0
19 *137:A *48:36 0
20 *141:A *132:B1 0.000315372
21 *141:A *160:A 1.08483e-05
22 *141:A *52:27 5.45307e-05
23 *141:A *52:29 4.82947e-05
24 *144:A *135:B 0.000100638
25 *41:14 *165:A 0.000101555
26 *41:14 *49:14 0.000387209
27 *41:41 *132:B1 9.15842e-06
28 *41:49 *161:A 3.69047e-06
29 *41:49 *53:8 2.61976e-05
30 *41:53 *55:16 0.000141734
31 debug_out[2] *41:14 1.48543e-05
32 *145:CLK *137:A 0.000139305
33 *145:D *137:A 2.13481e-06
34 *145:RESET_B *137:A 0.000173362
35 *146:RESET_B *41:14 1.73875e-05
36 *148:D *137:A 6.12436e-05
37 *148:RESET_B *137:A 0.00010049
38 *150:RESET_B *41:41 9.96487e-05
39 *150:RESET_B *41:49 2.24724e-05
40 *152:RESET_B *144:A 0.000280046
41 *152:RESET_B *41:63 5.90911e-05
42 *153:A *139:A 4.33899e-05
43 *153:A *41:18 9.75171e-05
44 *40:10 *41:63 5.8996e-05
*RES
1 *162:X *41:14 23.925 
2 *41:14 *41:18 5.44643 
3 *41:18 *138:A 9.3 
4 *41:18 *139:A 9.83571 
5 *41:14 *41:32 2.85714 
6 *41:32 *142:A 13.8 
7 *41:32 *41:41 3.16071 
8 *41:41 *41:49 15.0357 
9 *41:49 *41:53 6.67857 
10 *41:53 *41:63 10.2679 
11 *41:63 *137:A 31.3179 
12 *41:63 *140:A 13.8 
13 *41:53 *144:A 18.175 
14 *41:49 *143:A 10.5679 
15 *41:41 *141:A 20.4964 
*END

*D_NET *42 0.000527197
*CONN
*I *120:A I *D sky130_fd_sc_hd__inv_2
*I *156:X O *D sky130_fd_sc_hd__dlygate4sd3_1
*CAP
1 *120:A 0.000175852
2 *156:X 0.000175852
3 *129:A *120:A 0.000147091
4 *148:RESET_B *120:A 2.84026e-05
*RES
1 *156:X *120:A 22.0286 
*END

*D_NET *43 0.00045142
*CONN
*I *136:A I *D sky130_fd_sc_hd__xor2_1
*I *157:X O *D sky130_fd_sc_hd__dlygate4sd3_1
*CAP
1 *136:A 0.00022571
2 *157:X 0.00022571
*RES
1 *157:X *136:A 30.6 
*END

*D_NET *44 0.00132386
*CONN
*I *134:A I *D sky130_fd_sc_hd__xor2_1
*I *158:X O *D sky130_fd_sc_hd__dlygate4sd3_1
*CAP
1 *134:A 0.000131873
2 *158:X 0.000131873
3 *134:A *135:B 1.34631e-05
4 *134:A *135:C 5.49489e-05
5 *134:A *158:A 0.00018528
6 *134:B *134:A 0.000628672
7 *135:D *134:A 2.36643e-05
8 *136:B *134:A 0.000154086
*RES
1 *158:X *134:A 24.9036 
*END

*D_NET *45 0.00142137
*CONN
*I *125:A I *D sky130_fd_sc_hd__xnor2_1
*I *159:X O *D sky130_fd_sc_hd__dlygate4sd3_1
*CAP
1 *125:A 0.000568196
2 *159:X 0.000568196
3 *125:A *50:18 4.96113e-05
4 *124:A *125:A 2.16394e-05
5 *146:RESET_B *125:A 3.42301e-05
6 *147:CLK *125:A 0.000167448
7 *147:D *125:A 1.20457e-05
*RES
1 *159:X *125:A 35.7964 
*END

*D_NET *46 0.000828156
*CONN
*I *132:A1 I *D sky130_fd_sc_hd__a21oi_1
*I *130:A I *D sky130_fd_sc_hd__xor2_1
*I *160:X O *D sky130_fd_sc_hd__dlygate4sd3_1
*CAP
1 *132:A1 8.77756e-05
2 *130:A 8.65631e-05
3 *160:X 0
4 *46:4 0.000174339
5 *130:A *52:29 0.000186817
6 *132:A2 *130:A 0.000143427
7 *132:A2 *132:A1 0.000149235
*RES
1 *160:X *46:4 9.3 
2 *46:4 *130:A 12.1036 
3 *46:4 *132:A1 20.2464 
*END

*D_NET *47 0.00118023
*CONN
*I *132:B1 I *D sky130_fd_sc_hd__a21oi_1
*I *161:X O *D sky130_fd_sc_hd__dlygate4sd3_1
*CAP
1 *132:B1 0.000421247
2 *161:X 0.000421247
3 *133:B *132:B1 1.32056e-05
4 *141:A *132:B1 0.000315372
5 *41:41 *132:B1 9.15842e-06
*RES
1 *161:X *132:B1 35.7607 
*END

*D_NET *48 0.00674594
*CONN
*I *156:A I *D sky130_fd_sc_hd__dlygate4sd3_1
*I *126:A I *D sky130_fd_sc_hd__and4_2
*I *127:A1 I *D sky130_fd_sc_hd__a31o_1
*I *121:A I *D sky130_fd_sc_hd__nand2_1
*I *163:A I *D sky130_fd_sc_hd__clkbuf_4
*I *122:A I *D sky130_fd_sc_hd__or2_1
*I *145:Q O *D sky130_fd_sc_hd__dfrtp_1
*CAP
1 *156:A 0
2 *126:A 0.00013467
3 *127:A1 4.39968e-05
4 *121:A 0.000222707
5 *163:A 0.000659695
6 *122:A 0.00022153
7 *145:Q 0.000191546
8 *48:57 0.000620256
9 *48:36 0.000909965
10 *48:12 0.00112228
11 *48:8 0.000678273
12 *121:A *122:B 5.49489e-05
13 *121:A *49:26 0.00010288
14 *122:A *122:B 0.000185197
15 *126:A *127:A3 3.06194e-05
16 *126:A *127:B1 7.19199e-06
17 *126:A *50:18 3.08382e-06
18 *127:A1 *127:A3 8.13223e-06
19 *163:A *168:A 5.66971e-05
20 *48:12 *122:B 0
21 *48:36 *51:10 0
22 *48:57 *127:A3 2.06571e-05
23 *48:57 *49:26 1.16994e-05
24 debug_out[0] *163:A 3.22347e-05
25 debug_out[5] *163:A 0.000271329
26 *128:A_N *121:A 0
27 *128:B *48:57 0.000186817
28 *129:A *48:36 0.000226867
29 *129:A *48:57 3.65101e-05
30 *137:A *121:A 0
31 *137:A *48:36 0
32 *148:RESET_B *48:12 5.14943e-05
33 *148:RESET_B *48:36 9.62478e-05
34 *154:A *163:A 6.87662e-05
35 *29:8 *121:A 1.52013e-05
36 *30:14 *122:A 0.000332644
37 *30:14 *163:A 8.33709e-05
38 *39:10 *48:12 3.42301e-05
39 *39:40 *48:12 2.41982e-05
*RES
1 *145:Q *48:8 15.9786 
2 *48:8 *48:12 8.875 
3 *48:12 *122:A 15.175 
4 *48:12 *163:A 18.8 
5 *48:8 *48:36 9.83929 
6 *48:36 *121:A 22.4607 
7 *48:36 *48:57 5.78571 
8 *48:57 *127:A1 10.3357 
9 *48:57 *126:A 11.3893 
10 *48:36 *156:A 9.3 
*END

*D_NET *49 0.00912956
*CONN
*I *126:B I *D sky130_fd_sc_hd__and4_2
*I *164:A I *D sky130_fd_sc_hd__buf_2
*I *127:A2 I *D sky130_fd_sc_hd__a31o_1
*I *121:B I *D sky130_fd_sc_hd__nand2_1
*I *122:B I *D sky130_fd_sc_hd__or2_1
*I *146:Q O *D sky130_fd_sc_hd__dfrtp_1
*CAP
1 *126:B 0
2 *164:A 0.000733357
3 *127:A2 4.17189e-05
4 *121:B 0
5 *122:B 0.000992348
6 *146:Q 0.000481718
7 *49:50 0.000775075
8 *49:26 0.00148711
9 *49:16 0.000682505
10 *49:14 0.00066946
11 *122:B *166:A 0
12 *127:A2 *168:A 0
13 *164:A *131:A 9.8126e-05
14 *49:14 *127:A3 1.98839e-05
15 *49:14 *165:A 0.000317625
16 *49:14 *50:14 1.58163e-05
17 *49:14 *50:18 8.42043e-05
18 *49:16 *127:A3 0.000214786
19 *49:26 *127:A3 5.33005e-05
20 debug_out[1] *164:A 0.000102168
21 *121:A *122:B 5.49489e-05
22 *121:A *49:26 0.00010288
23 *122:A *122:B 0.000185197
24 *123:A *164:A 0.000124749
25 *125:B *127:A2 5.29529e-05
26 *125:B *164:A 0.000186835
27 *128:B *49:26 4.91968e-05
28 *129:A *49:26 3.09893e-05
29 *133:A *164:A 6.14702e-06
30 *133:B *164:A 0.000358841
31 *137:A *122:B 0
32 *145:CLK *122:B 3.84884e-05
33 *145:D *122:B 7.74135e-05
34 *145:RESET_B *122:B 4.42631e-05
35 *146:RESET_B *49:14 3.60839e-05
36 *148:D *122:B 0.000264248
37 *149:D *164:A 6.87672e-05
38 *150:D *164:A 0.000198013
39 *155:A *164:A 1.12578e-05
40 *32:33 *164:A 6.20947e-05
41 *32:52 *164:A 8.07792e-06
42 *39:40 *122:B 0
43 *41:14 *49:14 0.000387209
44 *48:12 *122:B 0
45 *48:57 *49:26 1.16994e-05
*RES
1 *146:Q *49:14 27.6393 
2 *49:14 *49:16 2.58929 
3 *49:16 *49:26 15.6071 
4 *49:26 *122:B 36.2107 
5 *49:26 *121:B 9.3 
6 *49:16 *49:50 4.5 
7 *49:50 *127:A2 14.5321 
8 *49:50 *164:A 31.3 
9 *49:14 *126:B 9.3 
*END

*D_NET *50 0.0033008
*CONN
*I *159:A I *D sky130_fd_sc_hd__dlygate4sd3_1
*I *165:A I *D sky130_fd_sc_hd__clkbuf_4
*I *126:C I *D sky130_fd_sc_hd__and4_2
*I *127:A3 I *D sky130_fd_sc_hd__a31o_1
*I *147:Q O *D sky130_fd_sc_hd__dfrtp_1
*CAP
1 *159:A 0
2 *165:A 0.000315039
3 *126:C 0
4 *127:A3 0.000170376
5 *147:Q 0.00019576
6 *50:18 0.000314358
7 *50:14 0.000609105
8 *50:12 0.000345845
9 *127:A3 *127:B1 6.26774e-06
10 *125:A *50:18 4.96113e-05
11 *126:A *127:A3 3.06194e-05
12 *126:A *50:18 3.08382e-06
13 *127:A1 *127:A3 8.13223e-06
14 *146:RESET_B *165:A 0.000362397
15 *147:RESET_B *50:12 6.2379e-05
16 *41:14 *165:A 0.000101555
17 *48:57 *127:A3 2.06571e-05
18 *49:14 *127:A3 1.98839e-05
19 *49:14 *165:A 0.000317625
20 *49:14 *50:14 1.58163e-05
21 *49:14 *50:18 8.42043e-05
22 *49:16 *127:A3 0.000214786
23 *49:26 *127:A3 5.33005e-05
*RES
1 *147:Q *50:12 21.7107 
2 *50:12 *50:14 2.17857 
3 *50:14 *50:18 3.01786 
4 *50:18 *127:A3 13.6929 
5 *50:18 *126:C 9.3 
6 *50:14 *165:A 27.0679 
7 *50:12 *159:A 9.3 
*END

*D_NET *51 0.00430632
*CONN
*I *126:D I *D sky130_fd_sc_hd__and4_2
*I *127:B1 I *D sky130_fd_sc_hd__a31o_1
*I *166:A I *D sky130_fd_sc_hd__clkbuf_4
*I *148:Q O *D sky130_fd_sc_hd__dfrtp_1
*CAP
1 *126:D 0.00023027
2 *127:B1 2.75274e-05
3 *166:A 0.000946439
4 *148:Q 0.000229633
5 *51:25 0.000656918
6 *51:10 0.00157519
7 *127:B1 *168:A 8.22793e-06
8 debug_out[0] *166:A 0
9 debug_out[0] *51:25 0
10 *122:B *166:A 0
11 *124:A *126:D 4.04292e-05
12 *125:B *127:B1 6.27272e-06
13 *126:A *127:B1 7.19199e-06
14 *127:A3 *127:B1 6.26774e-06
15 *154:A *51:10 0
16 *32:14 *126:D 0.000283671
17 *32:14 *51:25 0.000288277
18 *48:36 *51:10 0
*RES
1 *148:Q *51:10 21.1296 
2 *51:10 *166:A 19.2787 
3 *51:10 *51:25 0.767667 
4 *51:25 *127:B1 17.6162 
5 *51:25 *126:D 18.2698 
*END

*D_NET *52 0.00417653
*CONN
*I *160:A I *D sky130_fd_sc_hd__dlygate4sd3_1
*I *131:A I *D sky130_fd_sc_hd__and3_1
*I *135:A I *D sky130_fd_sc_hd__and4_1
*I *167:A I *D sky130_fd_sc_hd__clkbuf_4
*I *149:Q O *D sky130_fd_sc_hd__dfrtp_1
*CAP
1 *160:A 1.85439e-05
2 *131:A 0.000104373
3 *135:A 6.23755e-05
4 *167:A 0.000402891
5 *149:Q 0
6 *52:29 0.000547453
7 *52:27 0.000567656
8 *52:6 0.000571299
9 *135:A *158:A 0.000310287
10 *52:29 *158:A 5.33005e-05
11 debug_out[4] *167:A 0.000356664
12 *130:A *52:29 0.000186817
13 *132:A2 *52:29 1.65914e-05
14 *135:D *135:A 0.000308657
15 *135:D *52:29 0.000165988
16 *141:A *160:A 1.08483e-05
17 *141:A *52:27 5.45307e-05
18 *141:A *52:29 4.82947e-05
19 *149:RESET_B *167:A 3.27526e-05
20 *149:RESET_B *52:27 6.84805e-05
21 *150:D *131:A 9.96487e-05
22 *164:A *131:A 9.8126e-05
23 *32:52 *131:A 3.87535e-05
24 *32:71 *52:29 5.2198e-05
*RES
1 *149:Q *52:6 13.8 
2 *52:6 *167:A 21.925 
3 *52:6 *52:27 7.60714 
4 *52:27 *52:29 7.10714 
5 *52:29 *135:A 12.3 
6 *52:29 *131:A 20.6036 
7 *52:27 *160:A 9.72857 
*END

*D_NET *53 0.00664975
*CONN
*I *161:A I *D sky130_fd_sc_hd__dlygate4sd3_1
*I *131:B I *D sky130_fd_sc_hd__and3_1
*I *135:B I *D sky130_fd_sc_hd__and4_1
*I *168:A I *D sky130_fd_sc_hd__clkbuf_4
*I *150:Q O *D sky130_fd_sc_hd__dfrtp_1
*CAP
1 *161:A 0.000229041
2 *131:B 0
3 *135:B 0.000560945
4 *168:A 0.000934299
5 *150:Q 0
6 *53:37 0.00095134
7 *53:8 0.0016475
8 *53:4 0.000551847
9 *135:B *54:14 2.57352e-05
10 debug_out[0] *168:A 0.000138733
11 *125:B *168:A 0.000126409
12 *127:A2 *168:A 0
13 *127:B1 *168:A 8.22793e-06
14 *134:A *135:B 1.34631e-05
15 *135:D *135:B 9.83388e-05
16 *144:A *135:B 0.000100638
17 *146:D *168:A 0.000127939
18 *149:CLK *135:B 3.37161e-05
19 *149:CLK *53:37 7.18257e-05
20 *149:D *53:37 3.79877e-06
21 *150:RESET_B *53:8 9.14132e-05
22 *151:RESET_B *135:B 3.19174e-05
23 *154:A *168:A 0.000241681
24 *163:A *168:A 5.66971e-05
25 *30:14 *168:A 0.000313969
26 *32:52 *53:37 2.05823e-05
27 *35:10 *135:B 5.33005e-05
28 *40:32 *135:B 0.000186506
29 *41:49 *161:A 3.69047e-06
30 *41:49 *53:8 2.61976e-05
*RES
1 *150:Q *53:4 9.3 
2 *53:4 *53:8 8.32143 
3 *53:8 *168:A 31.9429 
4 *53:8 *53:37 10.0536 
5 *53:37 *135:B 26.8536 
6 *53:37 *131:B 9.3 
7 *53:4 *161:A 13.0321 
*END

*D_NET *54 0.00312133
*CONN
*I *169:A I *D sky130_fd_sc_hd__clkbuf_4
*I *158:A I *D sky130_fd_sc_hd__dlygate4sd3_1
*I *135:C I *D sky130_fd_sc_hd__and4_1
*I *151:Q O *D sky130_fd_sc_hd__dfrtp_1
*CAP
1 *169:A 0.000491544
2 *158:A 0.00011763
3 *135:C 1.21804e-05
4 *151:Q 0.000362356
5 *54:16 0.00012981
6 *54:14 0.0008539
7 *169:A *170:A 0.000228514
8 debug_out[7] *169:A 1.47872e-05
9 *134:A *135:C 5.49489e-05
10 *134:A *158:A 0.00018528
11 *134:B *158:A 6.8529e-05
12 *135:A *158:A 0.000310287
13 *135:B *54:14 2.57352e-05
14 *135:D *135:C 5.49489e-05
15 *135:D *158:A 5.91598e-05
16 *149:CLK *54:14 3.69047e-06
17 *40:32 *54:14 9.47282e-05
18 *52:29 *158:A 5.33005e-05
*RES
1 *151:Q *54:14 18.6929 
2 *54:14 *54:16 4.5 
3 *54:16 *135:C 9.83571 
4 *54:16 *158:A 13.5321 
5 *54:14 *169:A 22.6571 
*END

*D_NET *55 0.00269965
*CONN
*I *170:A I *D sky130_fd_sc_hd__clkbuf_4
*I *157:A I *D sky130_fd_sc_hd__dlygate4sd3_1
*I *152:Q O *D sky130_fd_sc_hd__dfrtp_1
*CAP
1 *170:A 0.000359483
2 *157:A 0.000112937
3 *152:Q 0.000493747
4 *55:16 0.000966166
5 debug_out[7] *170:A 5.20751e-05
6 *151:CLK *55:16 1.34548e-05
7 *151:D *157:A 5.49544e-05
8 *151:D *170:A 7.74135e-05
9 *151:D *55:16 8.67797e-05
10 *152:CLK *55:16 7.57312e-05
11 *169:A *170:A 0.000228514
12 *40:23 *55:16 3.66572e-05
13 *41:53 *55:16 0.000141734
*RES
1 *152:Q *55:16 25.7464 
2 *55:16 *157:A 10.9786 
3 *55:16 *170:A 24.8536 
*END
