*SPEF "ieee 1481-1999"
*DESIGN "noc_top"
*DATE "11:11:11 Fri 11 11, 1111"
*VENDOR "OpenRCX"
*PROGRAM "Parallel Extraction"
*VERSION "1.0"
*DESIGN_FLOW "NAME_SCOPE LOCAL" "PIN_CAP NONE"
*DIVIDER /
*DELIMITER :
*BUS_DELIMITER []
*T_UNIT 1 NS
*C_UNIT 1 PF
*R_UNIT 1 OHM
*L_UNIT 1 HENRY

*NAME_MAP
*3 clk
*4 debug_out[0]
*5 debug_out[1]
*6 debug_out[2]
*7 debug_out[3]
*8 debug_out[4]
*9 debug_out[5]
*10 debug_out[6]
*11 debug_out[7]
*12 rst
*13 _00_
*14 _01_
*15 _02_
*16 _03_
*17 _04_
*18 _05_
*19 _06_
*20 _07_
*21 _08_
*22 _09_
*23 _10_
*24 _11_
*25 _12_
*26 _13_
*27 _14_
*28 _15_
*29 _16_
*30 _17_
*31 _18_
*32 _19_
*33 _20_
*34 _21_
*35 _22_
*36 _23_
*37 _24_
*38 clknet_0_clk
*39 clknet_1_0__leaf_clk
*40 clknet_1_1__leaf_clk
*41 net1
*42 net10
*43 net11
*44 net12
*45 net13
*46 net14
*47 net15
*48 net2
*49 net3
*50 net4
*51 net5
*52 net6
*53 net7
*54 net8
*55 net9
*56 FILLER_0_0_57
*57 FILLER_0_1_28
*58 FILLER_0_1_3
*59 FILLER_0_1_52
*60 FILLER_0_1_57
*61 FILLER_0_2_25
*62 FILLER_0_2_29
*63 FILLER_0_2_3
*64 FILLER_0_3_55
*65 FILLER_0_3_57
*66 FILLER_0_4_15
*67 FILLER_0_4_23
*68 FILLER_0_4_3
*69 FILLER_0_4_55
*70 FILLER_0_5_15
*71 FILLER_0_5_3
*72 FILLER_0_5_36
*73 FILLER_0_5_44
*74 FILLER_0_5_57
*75 FILLER_0_6_27
*76 FILLER_0_6_29
*77 FILLER_0_6_3
*78 FILLER_0_7_57
*79 FILLER_0_8_3
*80 FILLER_0_8_44
*81 FILLER_0_8_56
*82 FILLER_0_9_19
*83 FILLER_0_9_27
*84 FILLER_0_9_3
*85 FILLER_0_9_32
*86 FILLER_0_9_48
*87 FILLER_0_9_57
*88 PHY_0
*89 PHY_1
*90 PHY_10
*91 PHY_11
*92 PHY_12
*93 PHY_13
*94 PHY_14
*95 PHY_15
*96 PHY_16
*97 PHY_17
*98 PHY_18
*99 PHY_19
*100 PHY_2
*101 PHY_3
*102 PHY_4
*103 PHY_5
*104 PHY_6
*105 PHY_7
*106 PHY_8
*107 PHY_9
*108 TAP_20
*109 TAP_21
*110 TAP_22
*111 TAP_23
*112 TAP_24
*113 TAP_25
*114 TAP_26
*115 TAP_27
*116 TAP_28
*117 TAP_29
*118 TAP_30
*119 TAP_31
*120 _25_
*121 _26_
*122 _27_
*123 _28_
*124 _29_
*125 _30_
*126 _31_
*127 _32_
*128 _33_
*129 _34_
*130 _35_
*131 _36_
*132 _37_
*133 _38_
*134 _39_
*135 _40_
*136 _41_
*137 _42_
*138 _43_
*139 _44_
*140 _45_
*141 _46_
*142 _47_
*143 _48_
*144 _49_
*145 _50_
*146 _51_
*147 _52_
*148 _53_
*149 _54_
*150 _55_
*151 _56_
*152 _57_
*153 clkbuf_0_clk
*154 clkbuf_1_0__f_clk
*155 clkbuf_1_1__f_clk
*156 hold1
*157 hold2
*158 hold3
*159 hold4
*160 hold5
*161 hold6
*162 input1
*163 output2
*164 output3
*165 output4
*166 output5
*167 output6
*168 output7
*169 output8
*170 output9

*PORTS
clk I
debug_out[0] O
debug_out[1] O
debug_out[2] O
debug_out[3] O
debug_out[4] O
debug_out[5] O
debug_out[6] O
debug_out[7] O
rst I

*D_NET *3 0.00326101
*CONN
*P clk I
*I *153:A I *D sky130_fd_sc_hd__clkbuf_16
*CAP
1 clk 0.00148412
2 *153:A 0.00148412
3 *153:A *139:A 3.75126e-05
4 *153:A *146:RESET_B 8.52972e-05
5 *153:A *147:RESET_B 8.52845e-05
6 *153:A *41:18 8.46767e-05
*RES
1 clk *153:A 30.12 
*END

*D_NET *4 0.00450151
*CONN
*P debug_out[0] O
*I *163:X O *D sky130_fd_sc_hd__clkbuf_4
*CAP
1 debug_out[0] 0.00203555
2 *163:X 0.00203555
3 debug_out[0] debug_out[3] 4.95164e-05
4 debug_out[0] *123:B 0.000121033
5 debug_out[0] *154:A 0.000101727
6 debug_out[0] *163:A 3.07837e-05
7 debug_out[0] *166:A 0
8 debug_out[0] *168:A 0.000127346
9 debug_out[0] *51:25 0
*RES
1 *163:X debug_out[0] 18.0271 
*END

*D_NET *5 0.00108634
*CONN
*P debug_out[1] O
*I *164:X O *D sky130_fd_sc_hd__buf_2
*CAP
1 debug_out[1] 0.000495728
2 *164:X 0.000495728
3 debug_out[1] *164:A 9.4879e-05
*RES
1 *164:X debug_out[1] 11.895 
*END

*D_NET *6 0.00185478
*CONN
*P debug_out[2] O
*I *165:X O *D sky130_fd_sc_hd__clkbuf_4
*CAP
1 debug_out[2] 0.000729826
2 *165:X 0.000729826
3 debug_out[2] *162:A 0.000379884
4 debug_out[2] *41:14 1.52418e-05
*RES
1 *165:X debug_out[2] 15.48 
*END

*D_NET *7 0.000732753
*CONN
*P debug_out[3] O
*I *166:X O *D sky130_fd_sc_hd__clkbuf_4
*CAP
1 debug_out[3] 0.000341618
2 *166:X 0.000341618
3 debug_out[3] *145:CLK 0
4 debug_out[0] debug_out[3] 4.95164e-05
*RES
1 *166:X debug_out[3] 8.26043 
*END

*D_NET *8 0.00132958
*CONN
*P debug_out[4] O
*I *167:X O *D sky130_fd_sc_hd__clkbuf_4
*CAP
1 debug_out[4] 0.000503863
2 *167:X 0.000503863
3 debug_out[4] *167:A 0.000321849
*RES
1 *167:X debug_out[4] 8.41503 
*END

*D_NET *9 0.00117364
*CONN
*P debug_out[5] O
*I *168:X O *D sky130_fd_sc_hd__clkbuf_4
*CAP
1 debug_out[5] 0.000396594
2 *168:X 0.000396594
3 debug_out[5] *123:B 5.91492e-05
4 debug_out[5] *154:A 8.64488e-05
5 debug_out[5] *163:A 0.00023485
*RES
1 *168:X debug_out[5] 11.82 
*END

*D_NET *10 0.000873606
*CONN
*P debug_out[6] O
*I *169:X O *D sky130_fd_sc_hd__clkbuf_4
*CAP
1 debug_out[6] 0.000260316
2 *169:X 0.000260316
3 debug_out[6] debug_out[7] 0.000352974
*RES
1 *169:X debug_out[6] 8.02043 
*END

*D_NET *11 0.00213268
*CONN
*P debug_out[7] O
*I *170:X O *D sky130_fd_sc_hd__clkbuf_4
*CAP
1 debug_out[7] 0.000858296
2 *170:X 0.000858296
3 debug_out[7] *169:A 1.42598e-05
4 debug_out[7] *170:A 4.8854e-05
5 debug_out[6] debug_out[7] 0.000352974
*RES
1 *170:X debug_out[7] 17.07 
*END

*D_NET *12 0.00084977
*CONN
*P rst I
*I *162:A I *D sky130_fd_sc_hd__clkbuf_4
*CAP
1 rst 0.000234943
2 *162:A 0.000234943
3 debug_out[2] *162:A 0.000379884
*RES
1 rst *162:A 8.4139 
*END

*D_NET *13 0.000328289
*CONN
*I *145:D I *D sky130_fd_sc_hd__dfrtp_1
*I *120:Y O *D sky130_fd_sc_hd__inv_2
*CAP
1 *145:D 0.000116879
2 *120:Y 0.000116879
3 *145:D *122:B 7.03276e-05
4 *145:D *137:A 2.19562e-06
5 *145:D *145:CLK 8.53856e-06
6 *145:D *145:RESET_B 1.34687e-05
*RES
1 *120:Y *145:D 8.91375 
*END

*D_NET *14 0.000778889
*CONN
*I *146:D I *D sky130_fd_sc_hd__dfrtp_1
*I *124:X O *D sky130_fd_sc_hd__clkbuf_1
*CAP
1 *146:D 0.000213796
2 *124:X 0.000213796
3 *146:D *123:B 0.000235351
4 *146:D *168:A 0.000115945
*RES
1 *124:X *146:D 10.755 
*END

*D_NET *15 0.000348091
*CONN
*I *147:D I *D sky130_fd_sc_hd__dfrtp_1
*I *125:Y O *D sky130_fd_sc_hd__xnor2_1
*CAP
1 *147:D 0.00014169
2 *125:Y 0.00014169
3 *147:D *125:A 1.22805e-05
4 *147:D *147:CLK 5.2431e-05
*RES
1 *125:Y *147:D 5.045 
*END

*D_NET *16 0.000649081
*CONN
*I *148:D I *D sky130_fd_sc_hd__dfrtp_1
*I *129:X O *D sky130_fd_sc_hd__clkbuf_1
*CAP
1 *148:D 0.000170122
2 *129:X 0.000170122
3 *148:D *122:B 0.000239772
4 *148:D *137:A 6.41909e-05
5 *148:D *39:16 4.87485e-06
*RES
1 *129:X *148:D 10.92 
*END

*D_NET *17 0.000540956
*CONN
*I *149:D I *D sky130_fd_sc_hd__dfrtp_1
*I *130:X O *D sky130_fd_sc_hd__xor2_1
*CAP
1 *149:D 0.000142394
2 *130:X 0.000142394
3 *149:D *164:A 6.83991e-05
4 *149:D *32:52 0.000120115
5 *149:D *32:71 6.37444e-05
6 *149:D *53:37 3.90873e-06
*RES
1 *130:X *149:D 9.99 
*END

*D_NET *18 0.00125651
*CONN
*I *150:D I *D sky130_fd_sc_hd__dfrtp_1
*I *133:Y O *D sky130_fd_sc_hd__nor2_1
*CAP
1 *150:D 0.000232903
2 *133:Y 0.000232903
3 *150:D *131:A 9.05535e-05
4 *150:D *133:A 0.000138833
5 *150:D *133:B 1.91597e-05
6 *150:D *164:A 0.000194061
7 *150:D *32:33 0.000113606
8 *150:D *35:10 0.000234487
*RES
1 *133:Y *150:D 13.455 
*END

*D_NET *19 0.000641495
*CONN
*I *151:D I *D sky130_fd_sc_hd__dfrtp_1
*I *134:X O *D sky130_fd_sc_hd__xor2_1
*CAP
1 *151:D 7.73308e-05
2 *134:X 7.73308e-05
3 *151:D *136:B 5.34565e-05
4 *151:D *151:CLK 7.27714e-05
5 *151:D *152:D 0.000167477
6 *151:D *157:A 4.77757e-05
7 *151:D *170:A 7.03276e-05
8 *151:D *55:16 7.50252e-05
*RES
1 *134:X *151:D 10.335 
*END

*D_NET *20 0.000912196
*CONN
*I *152:D I *D sky130_fd_sc_hd__dfrtp_1
*I *136:X O *D sky130_fd_sc_hd__xor2_1
*CAP
1 *152:D 0.000332365
2 *136:X 0.000332365
3 *152:D *136:B 9.13949e-06
4 *152:D *152:CLK 7.08493e-05
5 *151:D *152:D 0.000167477
*RES
1 *136:X *152:D 13.14 
*END

*D_NET *21 0.000744942
*CONN
*I *145:RESET_B I *D sky130_fd_sc_hd__dfrtp_1
*I *137:Y O *D sky130_fd_sc_hd__inv_2
*CAP
1 *145:RESET_B 0.000220225
2 *137:Y 0.000220225
3 *145:RESET_B *122:B 4.46271e-05
4 *145:RESET_B *137:A 0.000150929
5 *145:RESET_B *145:CLK 9.03138e-05
6 *145:RESET_B *39:16 5.15348e-06
7 *145:D *145:RESET_B 1.34687e-05
*RES
1 *137:Y *145:RESET_B 9.2975 
*END

*D_NET *22 0.0011875
*CONN
*I *146:RESET_B I *D sky130_fd_sc_hd__dfrtp_1
*I *138:Y O *D sky130_fd_sc_hd__inv_2
*CAP
1 *146:RESET_B 0.000337199
2 *138:Y 0.000337199
3 *146:RESET_B *124:A 0
4 *146:RESET_B *125:A 3.45117e-05
5 *146:RESET_B *165:A 0.000329269
6 *146:RESET_B *32:14 1.00941e-05
7 *146:RESET_B *41:14 1.87062e-05
8 *146:RESET_B *49:14 3.52241e-05
9 *153:A *146:RESET_B 8.52972e-05
*RES
1 *138:Y *146:RESET_B 12.2 
*END

*D_NET *23 0.000798902
*CONN
*I *147:RESET_B I *D sky130_fd_sc_hd__dfrtp_1
*I *139:Y O *D sky130_fd_sc_hd__inv_2
*CAP
1 *147:RESET_B 0.000326145
2 *139:Y 0.000326145
3 *147:RESET_B *50:12 6.13283e-05
4 *153:A *147:RESET_B 8.52845e-05
*RES
1 *139:Y *147:RESET_B 10.8125 
*END

*D_NET *24 0.000584742
*CONN
*I *148:RESET_B I *D sky130_fd_sc_hd__dfrtp_1
*I *140:Y O *D sky130_fd_sc_hd__inv_2
*CAP
1 *148:RESET_B 0.000157616
2 *140:Y 0.000157616
3 *148:RESET_B *120:A 2.68464e-05
4 *148:RESET_B *137:A 9.81653e-05
5 *148:RESET_B *48:12 5.05228e-05
6 *148:RESET_B *48:36 9.3975e-05
*RES
1 *140:Y *148:RESET_B 9.215 
*END

*D_NET *25 0.000321226
*CONN
*I *149:RESET_B I *D sky130_fd_sc_hd__dfrtp_1
*I *141:Y O *D sky130_fd_sc_hd__inv_2
*CAP
1 *149:RESET_B 0.00011456
2 *141:Y 0.00011456
3 *149:RESET_B *167:A 2.97802e-05
4 *149:RESET_B *52:27 6.23262e-05
*RES
1 *141:Y *149:RESET_B 7.4675 
*END

*D_NET *26 0.00035164
*CONN
*I *150:RESET_B I *D sky130_fd_sc_hd__dfrtp_1
*I *142:Y O *D sky130_fd_sc_hd__inv_2
*CAP
1 *150:RESET_B 7.92551e-05
2 *142:Y 7.92551e-05
3 *150:RESET_B *41:41 9.05535e-05
4 *150:RESET_B *41:49 2.32277e-05
5 *150:RESET_B *53:8 7.93488e-05
*RES
1 *142:Y *150:RESET_B 7.4675 
*END

*D_NET *27 0.000260967
*CONN
*I *151:RESET_B I *D sky130_fd_sc_hd__dfrtp_1
*I *143:Y O *D sky130_fd_sc_hd__inv_2
*CAP
1 *151:RESET_B 0.000113764
2 *143:Y 0.000113764
3 *151:RESET_B *135:B 3.34396e-05
*RES
1 *143:Y *151:RESET_B 7.49 
*END

*D_NET *28 0.000730253
*CONN
*I *152:RESET_B I *D sky130_fd_sc_hd__dfrtp_1
*I *144:Y O *D sky130_fd_sc_hd__inv_2
*CAP
1 *152:RESET_B 0.00011874
2 *144:Y 0.00011874
3 *152:RESET_B *144:A 0.000253979
4 *152:RESET_B *40:10 2.98587e-05
5 *152:RESET_B *40:23 0.000155489
6 *152:RESET_B *41:63 5.34461e-05
*RES
1 *144:Y *152:RESET_B 9.275 
*END

*D_NET *29 0.00218561
*CONN
*I *123:A I *D sky130_fd_sc_hd__and2_1
*I *125:B I *D sky130_fd_sc_hd__xnor2_1
*I *121:Y O *D sky130_fd_sc_hd__nand2_1
*CAP
1 *123:A 0.000162029
2 *125:B 0.000151717
3 *121:Y 0.000267883
4 *29:8 0.000581629
5 *123:A *155:A 0.000152929
6 *123:A *164:A 0.000113222
7 *125:B *127:A2 4.85118e-05
8 *125:B *127:B1 6.63219e-06
9 *125:B *154:A 0.000280245
10 *125:B *155:A 0.00011708
11 *125:B *164:A 0.000169444
12 *125:B *168:A 0.000114643
13 *29:8 *121:A 1.55253e-05
14 *29:8 *38:8 4.11678e-06
*RES
1 *121:Y *29:8 6.465 
2 *29:8 *125:B 8.295 
3 *29:8 *123:A 6.81 
*END

*D_NET *30 0.00426883
*CONN
*I *123:B I *D sky130_fd_sc_hd__and2_1
*I *122:X O *D sky130_fd_sc_hd__or2_1
*CAP
1 *123:B 0.00107678
2 *122:X 0.00107678
3 *123:B *122:A 0.00031025
4 *123:B *124:A 0.000732371
5 *123:B *154:A 0.000114923
6 *123:B *163:A 8.55771e-05
7 *123:B *168:A 0.000295146
8 *123:B *39:10 0.000161467
9 debug_out[0] *123:B 0.000121033
10 debug_out[5] *123:B 5.91492e-05
11 *146:D *123:B 0.000235351
*RES
1 *122:X *123:B 31.08 
*END

*D_NET *31 0.00177269
*CONN
*I *124:A I *D sky130_fd_sc_hd__clkbuf_1
*I *123:X O *D sky130_fd_sc_hd__and2_1
*CAP
1 *124:A 0.000488518
2 *123:X 0.000488518
3 *124:A *125:A 2.30258e-05
4 *124:A *126:D 3.72899e-05
5 *124:A *32:14 2.97206e-06
6 *123:B *124:A 0.000732371
7 *146:RESET_B *124:A 0
*RES
1 *123:X *124:A 18 
*END

*D_NET *32 0.00613475
*CONN
*I *132:A2 I *D sky130_fd_sc_hd__a21oi_1
*I *130:B I *D sky130_fd_sc_hd__xor2_1
*I *135:D I *D sky130_fd_sc_hd__and4_1
*I *131:C I *D sky130_fd_sc_hd__and3_1
*I *128:A_N I *D sky130_fd_sc_hd__and2b_1
*I *126:X O *D sky130_fd_sc_hd__and4_2
*CAP
1 *132:A2 0.000184784
2 *130:B 0
3 *135:D 0.000379288
4 *131:C 5.41485e-05
5 *128:A_N 2.63164e-05
6 *126:X 0.000456182
7 *32:71 0.000262641
8 *32:52 0.000623668
9 *32:33 0.000655692
10 *32:14 0.000917518
11 *128:A_N *121:A 0
12 *128:A_N *154:A 1.66065e-05
13 *132:A2 *130:A 0.000123961
14 *132:A2 *132:A1 0.000135667
15 *132:A2 *52:29 1.5379e-05
16 *135:D *134:A 2.20014e-05
17 *135:D *135:A 0.000268156
18 *135:D *135:B 8.52845e-05
19 *135:D *135:C 4.77719e-05
20 *135:D *158:A 5.22839e-05
21 *135:D *52:29 0.000144725
22 *32:14 *126:D 0.000239735
23 *32:14 *51:25 0.000242578
24 *32:33 *150:CLK 0.000110179
25 *32:33 *154:A 0.000101807
26 *32:33 *155:A 0.000237855
27 *32:33 *164:A 6.40537e-05
28 *32:33 *35:10 4.86642e-05
29 *32:52 *131:A 3.6042e-05
30 *32:52 *149:CLK 0.000192508
31 *32:52 *164:A 8.34144e-06
32 *32:52 *53:37 2.14569e-05
33 *32:71 *52:29 4.89254e-05
34 *124:A *32:14 2.97206e-06
35 *146:RESET_B *32:14 1.00941e-05
36 *149:D *32:52 0.000120115
37 *149:D *32:71 6.37444e-05
38 *150:D *32:33 0.000113606
*RES
1 *126:X *32:14 5.68623 
2 *32:14 *128:A_N 4.0875 
3 *32:14 *32:33 11.1425 
4 *32:33 *131:C 2.635 
5 *32:33 *32:52 6.11 
6 *32:52 *135:D 9.345 
7 *32:52 *32:71 3.665 
8 *32:71 *130:B 1.6 
9 *32:71 *132:A2 9.23 
*END

*D_NET *33 0.000278379
*CONN
*I *128:B I *D sky130_fd_sc_hd__and2b_1
*I *127:X O *D sky130_fd_sc_hd__a31o_1
*CAP
1 *128:B 3.32306e-05
2 *127:X 3.32306e-05
3 *128:B *48:57 0.000161474
4 *128:B *49:26 5.04433e-05
*RES
1 *127:X *128:B 4.685 
*END

*D_NET *34 0.000885224
*CONN
*I *129:A I *D sky130_fd_sc_hd__clkbuf_1
*I *128:X O *D sky130_fd_sc_hd__and2b_1
*CAP
1 *129:A 0.000246782
2 *128:X 0.000246782
3 *129:A *120:A 0.000131188
4 *129:A *48:36 0.000196669
5 *129:A *48:57 3.50347e-05
6 *129:A *49:26 2.87688e-05
*RES
1 *128:X *129:A 8.63 
*END

*D_NET *35 0.00254105
*CONN
*I *133:A I *D sky130_fd_sc_hd__nor2_1
*I *134:B I *D sky130_fd_sc_hd__xor2_1
*I *131:X O *D sky130_fd_sc_hd__and3_1
*CAP
1 *133:A 0.000153596
2 *134:B 0.000341931
3 *131:X 0.000160957
4 *35:10 0.000656484
5 *133:A *133:B 6.53594e-05
6 *133:A *164:A 6.54361e-06
7 *134:B *134:A 0.000543998
8 *134:B *136:B 3.28227e-05
9 *134:B *158:A 6.41532e-05
10 *35:10 *135:B 4.66108e-05
11 *35:10 *149:CLK 4.66108e-05
12 *150:D *133:A 0.000138833
13 *150:D *35:10 0.000234487
14 *32:33 *35:10 4.86642e-05
*RES
1 *131:X *35:10 6.96 
2 *35:10 *134:B 10.275 
3 *35:10 *133:A 6.735 
*END

*D_NET *36 0.00109145
*CONN
*I *133:B I *D sky130_fd_sc_hd__nor2_1
*I *132:Y O *D sky130_fd_sc_hd__a21oi_1
*CAP
1 *133:B 0.000342565
2 *132:Y 0.000342565
3 *133:B *132:B1 1.14169e-05
4 *133:B *164:A 0.000310383
5 *133:A *133:B 6.53594e-05
6 *150:D *133:B 1.91597e-05
*RES
1 *132:Y *133:B 9.545 
*END

*D_NET *37 0.000990521
*CONN
*I *136:B I *D sky130_fd_sc_hd__xor2_1
*I *135:X O *D sky130_fd_sc_hd__and4_1
*CAP
1 *136:B 0.000375256
2 *135:X 0.000375256
3 *136:B *134:A 0.000144591
4 *134:B *136:B 3.28227e-05
5 *151:D *136:B 5.34565e-05
6 *152:D *136:B 9.13949e-06
*RES
1 *135:X *136:B 9.575 
*END

*D_NET *38 0.00269372
*CONN
*I *155:A I *D sky130_fd_sc_hd__clkbuf_16
*I *154:A I *D sky130_fd_sc_hd__clkbuf_16
*I *153:X O *D sky130_fd_sc_hd__clkbuf_16
*CAP
1 *155:A 0.000110904
2 *154:A 0.000388163
3 *153:X 4.5884e-05
4 *38:8 0.000544951
5 *154:A *147:CLK 9.23635e-05
6 *154:A *163:A 6.44202e-05
7 *154:A *168:A 0.0002222
8 *154:A *51:10 0
9 *155:A *164:A 1.10951e-05
10 debug_out[0] *154:A 0.000101727
11 debug_out[5] *154:A 8.64488e-05
12 *123:A *155:A 0.000152929
13 *123:B *154:A 0.000114923
14 *125:B *154:A 0.000280245
15 *125:B *155:A 0.00011708
16 *128:A_N *154:A 1.66065e-05
17 *29:8 *38:8 4.11678e-06
18 *32:33 *154:A 0.000101807
19 *32:33 *155:A 0.000237855
*RES
1 *153:X *38:8 4.05 
2 *38:8 *154:A 13.74 
3 *38:8 *155:A 7.305 
*END

*D_NET *39 0.00342845
*CONN
*I *146:CLK I *D sky130_fd_sc_hd__dfrtp_1
*I *147:CLK I *D sky130_fd_sc_hd__dfrtp_1
*I *148:CLK I *D sky130_fd_sc_hd__dfrtp_1
*I *145:CLK I *D sky130_fd_sc_hd__dfrtp_1
*I *154:X O *D sky130_fd_sc_hd__clkbuf_16
*CAP
1 *146:CLK 1.61641e-05
2 *147:CLK 0.000267906
3 *148:CLK 0
4 *145:CLK 0.000169446
5 *154:X 0.000154815
6 *39:40 0.000659874
7 *39:16 0.000503677
8 *39:10 0.00086485
9 *145:CLK *122:B 4.0129e-05
10 *145:CLK *137:A 0.000128046
11 *147:CLK *125:A 0.000149533
12 *39:10 *48:12 3.45117e-05
13 *39:40 *122:B 0
14 *39:40 *48:12 2.43519e-05
15 debug_out[3] *145:CLK 0
16 *123:B *39:10 0.000161467
17 *145:D *145:CLK 8.53856e-06
18 *145:RESET_B *145:CLK 9.03138e-05
19 *145:RESET_B *39:16 5.15348e-06
20 *147:D *147:CLK 5.2431e-05
21 *148:D *39:16 4.87485e-06
22 *154:A *147:CLK 9.23635e-05
*RES
1 *154:X *39:10 5.955 
2 *39:10 *39:16 5.825 
3 *39:16 *145:CLK 9.14 
4 *39:16 *148:CLK 1.6 
5 *39:10 *39:40 7.55 
6 *39:40 *147:CLK 10.685 
7 *39:40 *146:CLK 2.05 
*END

*D_NET *40 0.00339993
*CONN
*I *149:CLK I *D sky130_fd_sc_hd__dfrtp_1
*I *150:CLK I *D sky130_fd_sc_hd__dfrtp_1
*I *151:CLK I *D sky130_fd_sc_hd__dfrtp_1
*I *152:CLK I *D sky130_fd_sc_hd__dfrtp_1
*I *155:X O *D sky130_fd_sc_hd__clkbuf_16
*CAP
1 *149:CLK 7.32756e-05
2 *150:CLK 0.000101352
3 *151:CLK 0.000148269
4 *152:CLK 0.000300267
5 *155:X 0.000190433
6 *40:32 0.000381004
7 *40:23 0.000420114
8 *40:10 0.000556168
9 *149:CLK *135:B 3.24882e-05
10 *149:CLK *53:37 6.78972e-05
11 *149:CLK *54:14 3.64998e-06
12 *151:CLK *55:16 1.31227e-05
13 *152:CLK *55:16 7.08493e-05
14 *40:10 *41:63 5.76956e-05
15 *40:23 *55:16 3.87166e-05
16 *40:32 *135:B 0.000175194
17 *40:32 *54:14 9.11684e-05
18 *151:D *151:CLK 7.27714e-05
19 *152:D *152:CLK 7.08493e-05
20 *152:RESET_B *40:10 2.98587e-05
21 *152:RESET_B *40:23 0.000155489
22 *32:33 *150:CLK 0.000110179
23 *32:52 *149:CLK 0.000192508
24 *35:10 *149:CLK 4.66108e-05
*RES
1 *155:X *40:10 6.375 
2 *40:10 *152:CLK 8.535 
3 *40:10 *40:23 3.89 
4 *40:23 *151:CLK 4.12 
5 *40:23 *40:32 4.245 
6 *40:32 *150:CLK 7.49 
7 *40:32 *149:CLK 3.775 
*END

*D_NET *41 0.00829168
*CONN
*I *141:A I *D sky130_fd_sc_hd__inv_2
*I *143:A I *D sky130_fd_sc_hd__inv_2
*I *144:A I *D sky130_fd_sc_hd__inv_2
*I *140:A I *D sky130_fd_sc_hd__inv_2
*I *137:A I *D sky130_fd_sc_hd__inv_2
*I *142:A I *D sky130_fd_sc_hd__inv_2
*I *139:A I *D sky130_fd_sc_hd__inv_2
*I *138:A I *D sky130_fd_sc_hd__inv_2
*I *162:X O *D sky130_fd_sc_hd__clkbuf_4
*CAP
1 *141:A 0.000251892
2 *143:A 5.2227e-05
3 *144:A 0.000140341
4 *140:A 0
5 *137:A 0.000447137
6 *142:A 0
7 *139:A 1.7037e-05
8 *138:A 0
9 *162:X 0.000424684
10 *41:63 0.000982686
11 *41:53 0.000769835
12 *41:49 0.000896355
13 *41:41 0.00116519
14 *41:32 0.000303643
15 *41:18 5.59808e-05
16 *41:14 0.000604154
17 *137:A *121:A 0
18 *137:A *122:B 0
19 *137:A *48:36 0
20 *141:A *132:B1 0.000285897
21 *141:A *160:A 1.03197e-05
22 *141:A *52:27 5.06989e-05
23 *141:A *52:29 4.60123e-05
24 *144:A *135:B 9.83345e-05
25 *41:14 *165:A 9.81229e-05
26 *41:14 *49:14 0.000350952
27 *41:41 *132:B1 8.33066e-06
28 *41:49 *161:A 3.64998e-06
29 *41:49 *53:8 2.68364e-05
30 *41:53 *55:16 0.000122801
31 debug_out[2] *41:14 1.52418e-05
32 *145:CLK *137:A 0.000128046
33 *145:D *137:A 2.19562e-06
34 *145:RESET_B *137:A 0.000150929
35 *146:RESET_B *41:14 1.87062e-05
36 *148:D *137:A 6.41909e-05
37 *148:RESET_B *137:A 9.81653e-05
38 *150:RESET_B *41:41 9.05535e-05
39 *150:RESET_B *41:49 2.32277e-05
40 *152:RESET_B *144:A 0.000253979
41 *152:RESET_B *41:63 5.34461e-05
42 *153:A *139:A 3.75126e-05
43 *153:A *41:18 8.46767e-05
44 *40:10 *41:63 5.76956e-05
*RES
1 *162:X *41:14 12.105 
2 *41:14 *41:18 2.795 
3 *41:18 *138:A 1.6 
4 *41:18 *139:A 2.05 
5 *41:14 *41:32 2.4 
6 *41:32 *142:A 3.6 
7 *41:32 *41:41 2.655 
8 *41:41 *41:49 10.85 
9 *41:49 *41:53 3.83 
10 *41:53 *41:63 8.625 
11 *41:63 *137:A 14.755 
12 *41:63 *140:A 3.6 
13 *41:53 *144:A 7.275 
14 *41:49 *143:A 2.665 
15 *41:41 *141:A 9.225 
*END

*D_NET *42 0.000477129
*CONN
*I *120:A I *D sky130_fd_sc_hd__inv_2
*I *156:X O *D sky130_fd_sc_hd__dlygate4sd3_1
*CAP
1 *120:A 0.000159547
2 *156:X 0.000159547
3 *129:A *120:A 0.000131188
4 *148:RESET_B *120:A 2.68464e-05
*RES
1 *156:X *120:A 6.08 
*END

*D_NET *43 0.000403315
*CONN
*I *136:A I *D sky130_fd_sc_hd__xor2_1
*I *157:X O *D sky130_fd_sc_hd__dlygate4sd3_1
*CAP
1 *136:A 0.000201658
2 *157:X 0.000201658
*RES
1 *157:X *136:A 9.72 
*END

*D_NET *44 0.00116852
*CONN
*I *134:A I *D sky130_fd_sc_hd__xor2_1
*I *158:X O *D sky130_fd_sc_hd__dlygate4sd3_1
*CAP
1 *134:A 0.000118349
2 *158:X 0.000118349
3 *134:A *135:B 1.31297e-05
4 *134:A *135:C 4.77719e-05
5 *134:A *158:A 0.000160331
6 *134:B *134:A 0.000543998
7 *135:D *134:A 2.20014e-05
8 *136:B *134:A 0.000144591
*RES
1 *158:X *134:A 8.495 
*END

*D_NET *45 0.00126249
*CONN
*I *125:A I *D sky130_fd_sc_hd__xnor2_1
*I *159:X O *D sky130_fd_sc_hd__dlygate4sd3_1
*CAP
1 *125:A 0.000498069
2 *159:X 0.000498069
3 *125:A *50:18 4.7003e-05
4 *124:A *125:A 2.30258e-05
5 *146:RESET_B *125:A 3.45117e-05
6 *147:CLK *125:A 0.000149533
7 *147:D *125:A 1.22805e-05
*RES
1 *159:X *125:A 14.085 
*END

*D_NET *46 0.000740682
*CONN
*I *132:A1 I *D sky130_fd_sc_hd__a21oi_1
*I *130:A I *D sky130_fd_sc_hd__xor2_1
*I *160:X O *D sky130_fd_sc_hd__dlygate4sd3_1
*CAP
1 *132:A1 7.82278e-05
2 *130:A 8.15618e-05
3 *160:X 0
4 *46:4 0.00015979
5 *130:A *52:29 0.000161474
6 *132:A2 *130:A 0.000123961
7 *132:A2 *132:A1 0.000135667
*RES
1 *160:X *46:4 1.6 
2 *46:4 *130:A 3.955 
3 *46:4 *132:A1 7.235 
*END

*D_NET *47 0.00107284
*CONN
*I *132:B1 I *D sky130_fd_sc_hd__a21oi_1
*I *161:X O *D sky130_fd_sc_hd__dlygate4sd3_1
*CAP
1 *132:B1 0.000383598
2 *161:X 0.000383598
3 *133:B *132:B1 1.14169e-05
4 *141:A *132:B1 0.000285897
5 *41:41 *132:B1 8.33066e-06
*RES
1 *161:X *132:B1 14.055 
*END

*D_NET *48 0.0060241
*CONN
*I *156:A I *D sky130_fd_sc_hd__dlygate4sd3_1
*I *126:A I *D sky130_fd_sc_hd__and4_2
*I *127:A1 I *D sky130_fd_sc_hd__a31o_1
*I *121:A I *D sky130_fd_sc_hd__nand2_1
*I *163:A I *D sky130_fd_sc_hd__clkbuf_4
*I *122:A I *D sky130_fd_sc_hd__or2_1
*I *145:Q O *D sky130_fd_sc_hd__dfrtp_1
*CAP
1 *156:A 0
2 *126:A 0.000116534
3 *127:A1 3.96156e-05
4 *121:A 0.000201032
5 *163:A 0.000579404
6 *122:A 0.000199514
7 *145:Q 0.000170289
8 *48:57 0.000541395
9 *48:36 0.000806641
10 *48:12 0.000992983
11 *48:8 0.000604717
12 *121:A *122:B 4.77719e-05
13 *121:A *49:26 9.35189e-05
14 *122:A *122:B 0.000160319
15 *126:A *127:A3 3.17655e-05
16 *126:A *127:B1 6.74582e-06
17 *126:A *50:18 3.21081e-06
18 *127:A1 *127:A3 8.08546e-06
19 *163:A *168:A 4.89395e-05
20 *48:12 *122:B 0
21 *48:36 *51:10 0
22 *48:57 *127:A3 2.16899e-05
23 *48:57 *49:26 1.19828e-05
24 debug_out[0] *163:A 3.07837e-05
25 debug_out[5] *163:A 0.00023485
26 *123:B *122:A 0.00031025
27 *123:B *163:A 8.55771e-05
28 *128:A_N *121:A 0
29 *128:B *48:57 0.000161474
30 *129:A *48:36 0.000196669
31 *129:A *48:57 3.50347e-05
32 *137:A *121:A 0
33 *137:A *48:36 0
34 *148:RESET_B *48:12 5.05228e-05
35 *148:RESET_B *48:36 9.3975e-05
36 *154:A *163:A 6.44202e-05
37 *29:8 *121:A 1.55253e-05
38 *39:10 *48:12 3.45117e-05
39 *39:40 *48:12 2.43519e-05
*RES
1 *145:Q *48:8 5.43 
2 *48:8 *48:12 5.675 
3 *48:12 *122:A 6.535 
4 *48:12 *163:A 9.58 
5 *48:8 *48:36 6.485 
6 *48:36 *121:A 9.095 
7 *48:36 *48:57 4.86 
8 *48:57 *127:A1 2.47 
9 *48:57 *126:A 3.355 
10 *48:36 *156:A 1.6 
*END

*D_NET *49 0.00818175
*CONN
*I *126:B I *D sky130_fd_sc_hd__and4_2
*I *164:A I *D sky130_fd_sc_hd__buf_2
*I *127:A2 I *D sky130_fd_sc_hd__a31o_1
*I *121:B I *D sky130_fd_sc_hd__nand2_1
*I *122:B I *D sky130_fd_sc_hd__or2_1
*I *146:Q O *D sky130_fd_sc_hd__dfrtp_1
*CAP
1 *126:B 0
2 *164:A 0.000648732
3 *127:A2 3.58148e-05
4 *121:B 0
5 *122:B 0.000901129
6 *146:Q 0.000414638
7 *49:50 0.000684547
8 *49:26 0.00133292
9 *49:16 0.000594304
10 *49:14 0.000577155
11 *122:B *166:A 0
12 *127:A2 *168:A 0
13 *164:A *131:A 8.9257e-05
14 *49:14 *127:A3 1.91597e-05
15 *49:14 *165:A 0.00028782
16 *49:14 *50:14 1.56428e-05
17 *49:14 *50:18 8.16952e-05
18 *49:16 *127:A3 0.000189558
19 *49:26 *127:A3 4.66108e-05
20 debug_out[1] *164:A 9.4879e-05
21 *121:A *122:B 4.77719e-05
22 *121:A *49:26 9.35189e-05
23 *122:A *122:B 0.000160319
24 *123:A *164:A 0.000113222
25 *125:B *127:A2 4.85118e-05
26 *125:B *164:A 0.000169444
27 *128:B *49:26 5.04433e-05
28 *129:A *49:26 2.87688e-05
29 *133:A *164:A 6.54361e-06
30 *133:B *164:A 0.000310383
31 *137:A *122:B 0
32 *145:CLK *122:B 4.0129e-05
33 *145:D *122:B 7.03276e-05
34 *145:RESET_B *122:B 4.46271e-05
35 *146:RESET_B *49:14 3.52241e-05
36 *148:D *122:B 0.000239772
37 *149:D *164:A 6.83991e-05
38 *150:D *164:A 0.000194061
39 *155:A *164:A 1.10951e-05
40 *32:33 *164:A 6.40537e-05
41 *32:52 *164:A 8.34144e-06
42 *39:40 *122:B 0
43 *41:14 *49:14 0.000350952
44 *48:12 *122:B 0
45 *48:57 *49:26 1.19828e-05
*RES
1 *146:Q *49:14 13.445 
2 *49:14 *49:16 2.175 
3 *49:16 *49:26 9.55 
4 *49:26 *122:B 20.645 
5 *49:26 *121:B 1.6 
6 *49:16 *49:50 2 
7 *49:50 *127:A2 4.215 
8 *49:50 *164:A 18.3 
9 *49:14 *126:B 1.6 
*END

*D_NET *50 0.00298465
*CONN
*I *159:A I *D sky130_fd_sc_hd__dlygate4sd3_1
*I *165:A I *D sky130_fd_sc_hd__clkbuf_4
*I *126:C I *D sky130_fd_sc_hd__and4_2
*I *127:A3 I *D sky130_fd_sc_hd__a31o_1
*I *147:Q O *D sky130_fd_sc_hd__dfrtp_1
*CAP
1 *159:A 0
2 *165:A 0.000284042
3 *126:C 0
4 *127:A3 0.000148574
5 *147:Q 0.000176123
6 *50:18 0.000275005
7 *50:14 0.00054413
8 *50:12 0.00030978
9 *127:A3 *127:B1 6.03947e-06
10 *125:A *50:18 4.7003e-05
11 *126:A *127:A3 3.17655e-05
12 *126:A *50:18 3.21081e-06
13 *127:A1 *127:A3 8.08546e-06
14 *146:RESET_B *165:A 0.000329269
15 *147:RESET_B *50:12 6.13283e-05
16 *41:14 *165:A 9.81229e-05
17 *48:57 *127:A3 2.16899e-05
18 *49:14 *127:A3 1.91597e-05
19 *49:14 *165:A 0.00028782
20 *49:14 *50:14 1.56428e-05
21 *49:14 *50:18 8.16952e-05
22 *49:16 *127:A3 0.000189558
23 *49:26 *127:A3 4.66108e-05
*RES
1 *147:Q *50:12 8.465 
2 *50:12 *50:14 1.83 
3 *50:14 *50:18 2.535 
4 *50:18 *127:A3 5.29 
5 *50:18 *126:C 1.6 
6 *50:14 *165:A 12.965 
7 *50:12 *159:A 1.6 
*END

*D_NET *51 0.00380463
*CONN
*I *126:D I *D sky130_fd_sc_hd__and4_2
*I *127:B1 I *D sky130_fd_sc_hd__a31o_1
*I *166:A I *D sky130_fd_sc_hd__clkbuf_4
*I *148:Q O *D sky130_fd_sc_hd__dfrtp_1
*CAP
1 *126:D 0.000199451
2 *127:B1 2.30715e-05
3 *166:A 0.000842309
4 *148:Q 0.000210538
5 *51:25 0.000575752
6 *51:10 0.00140608
7 *127:B1 *168:A 8.41015e-06
8 debug_out[0] *166:A 0
9 debug_out[0] *51:25 0
10 *122:B *166:A 0
11 *124:A *126:D 3.72899e-05
12 *125:B *127:B1 6.63219e-06
13 *126:A *127:B1 6.74582e-06
14 *127:A3 *127:B1 6.03947e-06
15 *154:A *51:10 0
16 *32:14 *126:D 0.000239735
17 *32:14 *51:25 0.000242578
18 *48:36 *51:10 0
*RES
1 *148:Q *51:10 7.3925 
2 *51:10 *166:A 5.79083 
3 *51:10 *51:25 0.620667 
4 *51:25 *127:B1 4.44125 
5 *51:25 *126:D 4.9751 
*END

*D_NET *52 0.00372852
*CONN
*I *160:A I *D sky130_fd_sc_hd__dlygate4sd3_1
*I *131:A I *D sky130_fd_sc_hd__and3_1
*I *135:A I *D sky130_fd_sc_hd__and4_1
*I *167:A I *D sky130_fd_sc_hd__clkbuf_4
*I *149:Q O *D sky130_fd_sc_hd__dfrtp_1
*CAP
1 *160:A 1.73481e-05
2 *131:A 8.90364e-05
3 *135:A 5.35354e-05
4 *167:A 0.000365762
5 *149:Q 0
6 *52:29 0.000483592
7 *52:27 0.000510225
8 *52:6 0.000517618
9 *135:A *158:A 0.000269299
10 *52:29 *158:A 4.66108e-05
11 debug_out[4] *167:A 0.000321849
12 *130:A *52:29 0.000161474
13 *132:A2 *52:29 1.5379e-05
14 *135:D *135:A 0.000268156
15 *135:D *52:29 0.000144725
16 *141:A *160:A 1.03197e-05
17 *141:A *52:27 5.06989e-05
18 *141:A *52:29 4.60123e-05
19 *149:RESET_B *167:A 2.97802e-05
20 *149:RESET_B *52:27 6.23262e-05
21 *150:D *131:A 9.05535e-05
22 *164:A *131:A 8.9257e-05
23 *32:52 *131:A 3.6042e-05
24 *32:71 *52:29 4.89254e-05
*RES
1 *149:Q *52:6 3.6 
2 *52:6 *167:A 10.425 
3 *52:6 *52:27 4.61 
4 *52:27 *52:29 5.97 
5 *52:29 *135:A 4.12 
6 *52:29 *131:A 7.535 
7 *52:27 *160:A 1.96 
*END

*D_NET *53 0.00593906
*CONN
*I *161:A I *D sky130_fd_sc_hd__dlygate4sd3_1
*I *131:B I *D sky130_fd_sc_hd__and3_1
*I *135:B I *D sky130_fd_sc_hd__and4_1
*I *168:A I *D sky130_fd_sc_hd__clkbuf_4
*I *150:Q O *D sky130_fd_sc_hd__dfrtp_1
*CAP
1 *161:A 0.00021176
2 *131:B 0
3 *135:B 0.000482195
4 *168:A 0.000827176
5 *150:Q 0
6 *53:37 0.000826227
7 *53:8 0.00145221
8 *53:4 0.000492762
9 *135:B *54:14 2.65195e-05
10 debug_out[0] *168:A 0.000127346
11 *123:B *168:A 0.000295146
12 *125:B *168:A 0.000114643
13 *127:A2 *168:A 0
14 *127:B1 *168:A 8.41015e-06
15 *134:A *135:B 1.31297e-05
16 *135:D *135:B 8.52845e-05
17 *144:A *135:B 9.83345e-05
18 *146:D *168:A 0.000115945
19 *149:CLK *135:B 3.24882e-05
20 *149:CLK *53:37 6.78972e-05
21 *149:D *53:37 3.90873e-06
22 *150:RESET_B *53:8 7.93488e-05
23 *151:RESET_B *135:B 3.34396e-05
24 *154:A *168:A 0.0002222
25 *163:A *168:A 4.89395e-05
26 *32:52 *53:37 2.14569e-05
27 *35:10 *135:B 4.66108e-05
28 *40:32 *135:B 0.000175194
29 *41:49 *161:A 3.64998e-06
30 *41:49 *53:8 2.68364e-05
*RES
1 *150:Q *53:4 1.6 
2 *53:4 *53:8 5.21 
3 *53:8 *168:A 18.84 
4 *53:8 *53:37 6.665 
5 *53:37 *135:B 12.785 
6 *53:37 *131:B 1.6 
7 *53:4 *161:A 4.735 
*END

*D_NET *54 0.00278819
*CONN
*I *169:A I *D sky130_fd_sc_hd__clkbuf_4
*I *158:A I *D sky130_fd_sc_hd__dlygate4sd3_1
*I *135:C I *D sky130_fd_sc_hd__and4_1
*I *151:Q O *D sky130_fd_sc_hd__dfrtp_1
*CAP
1 *169:A 0.00045306
2 *158:A 0.000103393
3 *135:C 1.02931e-05
4 *151:Q 0.000316527
5 *54:16 0.000113686
6 *54:14 0.000769587
7 *169:A *170:A 0.000197826
8 debug_out[7] *169:A 1.42598e-05
9 *134:A *135:C 4.77719e-05
10 *134:A *158:A 0.000160331
11 *134:B *158:A 6.41532e-05
12 *135:A *158:A 0.000269299
13 *135:B *54:14 2.65195e-05
14 *135:D *135:C 4.77719e-05
15 *135:D *158:A 5.22839e-05
16 *149:CLK *54:14 3.64998e-06
17 *40:32 *54:14 9.11684e-05
18 *52:29 *158:A 4.66108e-05
*RES
1 *151:Q *54:14 7.71 
2 *54:14 *54:16 2 
3 *54:16 *135:C 2.05 
4 *54:16 *158:A 5.155 
5 *54:14 *169:A 11.04 
*END

*D_NET *55 0.00239939
*CONN
*I *170:A I *D sky130_fd_sc_hd__clkbuf_4
*I *157:A I *D sky130_fd_sc_hd__dlygate4sd3_1
*I *152:Q O *D sky130_fd_sc_hd__dfrtp_1
*CAP
1 *170:A 0.000322702
2 *157:A 9.99181e-05
3 *152:Q 0.000434428
4 *55:16 0.000857048
5 debug_out[7] *170:A 4.8854e-05
6 *151:CLK *55:16 1.31227e-05
7 *151:D *157:A 4.77757e-05
8 *151:D *170:A 7.03276e-05
9 *151:D *55:16 7.50252e-05
10 *152:CLK *55:16 7.08493e-05
11 *169:A *170:A 0.000197826
12 *40:23 *55:16 3.87166e-05
13 *41:53 *55:16 0.000122801
*RES
1 *152:Q *55:16 11.855 
2 *55:16 *157:A 3.01 
3 *55:16 *170:A 11.105 
*END
