*SPEF "ieee 1481-1999"
*DESIGN "noc_top"
*DATE "11:11:11 Fri 11 11, 1111"
*VENDOR "OpenRCX"
*PROGRAM "Parallel Extraction"
*VERSION "1.0"
*DESIGN_FLOW "NAME_SCOPE LOCAL" "PIN_CAP NONE"
*DIVIDER /
*DELIMITER :
*BUS_DELIMITER []
*T_UNIT 1 NS
*C_UNIT 1 PF
*R_UNIT 1 OHM
*L_UNIT 1 HENRY

*NAME_MAP
*3 clk
*4 debug_out[0]
*5 debug_out[1]
*6 debug_out[2]
*7 debug_out[3]
*8 debug_out[4]
*9 debug_out[5]
*10 debug_out[6]
*11 debug_out[7]
*12 rst
*13 _00_
*14 _01_
*15 _02_
*16 _03_
*17 _04_
*18 _05_
*19 _06_
*20 _07_
*21 _08_
*22 _09_
*23 _10_
*24 _11_
*25 _12_
*26 _13_
*27 _14_
*28 _15_
*29 _16_
*30 _17_
*31 _18_
*32 _19_
*33 _20_
*34 _21_
*35 _22_
*36 _23_
*37 _24_
*38 clknet_0_clk
*39 clknet_1_0__leaf_clk
*40 clknet_1_1__leaf_clk
*41 net1
*42 net10
*43 net11
*44 net12
*45 net13
*46 net14
*47 net15
*48 net2
*49 net3
*50 net4
*51 net5
*52 net6
*53 net7
*54 net8
*55 net9
*56 FILLER_0_0_57
*57 FILLER_0_1_28
*58 FILLER_0_1_3
*59 FILLER_0_1_52
*60 FILLER_0_1_57
*61 FILLER_0_2_25
*62 FILLER_0_2_29
*63 FILLER_0_2_3
*64 FILLER_0_3_55
*65 FILLER_0_3_57
*66 FILLER_0_4_15
*67 FILLER_0_4_23
*68 FILLER_0_4_3
*69 FILLER_0_4_55
*70 FILLER_0_5_15
*71 FILLER_0_5_3
*72 FILLER_0_5_36
*73 FILLER_0_5_44
*74 FILLER_0_5_57
*75 FILLER_0_6_27
*76 FILLER_0_6_29
*77 FILLER_0_6_3
*78 FILLER_0_7_57
*79 FILLER_0_8_3
*80 FILLER_0_8_44
*81 FILLER_0_8_56
*82 FILLER_0_9_19
*83 FILLER_0_9_27
*84 FILLER_0_9_3
*85 FILLER_0_9_32
*86 FILLER_0_9_48
*87 FILLER_0_9_57
*88 PHY_0
*89 PHY_1
*90 PHY_10
*91 PHY_11
*92 PHY_12
*93 PHY_13
*94 PHY_14
*95 PHY_15
*96 PHY_16
*97 PHY_17
*98 PHY_18
*99 PHY_19
*100 PHY_2
*101 PHY_3
*102 PHY_4
*103 PHY_5
*104 PHY_6
*105 PHY_7
*106 PHY_8
*107 PHY_9
*108 TAP_20
*109 TAP_21
*110 TAP_22
*111 TAP_23
*112 TAP_24
*113 TAP_25
*114 TAP_26
*115 TAP_27
*116 TAP_28
*117 TAP_29
*118 TAP_30
*119 TAP_31
*120 _25_
*121 _26_
*122 _27_
*123 _28_
*124 _29_
*125 _30_
*126 _31_
*127 _32_
*128 _33_
*129 _34_
*130 _35_
*131 _36_
*132 _37_
*133 _38_
*134 _39_
*135 _40_
*136 _41_
*137 _42_
*138 _43_
*139 _44_
*140 _45_
*141 _46_
*142 _47_
*143 _48_
*144 _49_
*145 _50_
*146 _51_
*147 _52_
*148 _53_
*149 _54_
*150 _55_
*151 _56_
*152 _57_
*153 clkbuf_0_clk
*154 clkbuf_1_0__f_clk
*155 clkbuf_1_1__f_clk
*156 hold1
*157 hold2
*158 hold3
*159 hold4
*160 hold5
*161 hold6
*162 input1
*163 output2
*164 output3
*165 output4
*166 output5
*167 output6
*168 output7
*169 output8
*170 output9

*PORTS
clk I
debug_out[0] O
debug_out[1] O
debug_out[2] O
debug_out[3] O
debug_out[4] O
debug_out[5] O
debug_out[6] O
debug_out[7] O
rst I

*D_NET *3 0.00365672
*CONN
*P clk I
*I *153:A I *D sky130_fd_sc_hd__clkbuf_16
*CAP
1 clk 0.00110768
2 *153:A 0.000548697
3 *3:9 0.00165638
4 *153:A *139:A 4.44329e-05
5 *153:A *22:10 0.000100477
6 *153:A *23:10 0.000100061
7 *153:A *41:18 9.89901e-05
*RES
1 clk *3:9 40.0436 
2 *3:9 *153:A 34.5793 
*END

*D_NET *4 0.0053833
*CONN
*P debug_out[0] O
*I *163:X O *D sky130_fd_sc_hd__clkbuf_4
*CAP
1 debug_out[0] 0.0019964
2 *163:X 0.000445397
3 *4:14 0.0024418
4 debug_out[0] debug_out[3] 5.15919e-05
5 debug_out[0] *166:A 0
6 *4:14 *163:A 3.21294e-05
7 *4:14 *30:8 0.000141185
8 *4:14 *38:18 0.000123689
9 *4:14 *51:25 0
10 *4:14 *53:26 0.000151103
*RES
1 *163:X *4:14 49.9181 
2 *4:14 debug_out[0] 22.8859 
*END

*D_NET *5 0.00123465
*CONN
*P debug_out[1] O
*I *164:X O *D sky130_fd_sc_hd__buf_2
*CAP
1 debug_out[1] 0.000563919
2 *164:X 0.000563919
3 debug_out[1] *49:65 0.000106808
*RES
1 *164:X debug_out[1] 49.455 
*END

*D_NET *6 0.00216687
*CONN
*P debug_out[2] O
*I *165:X O *D sky130_fd_sc_hd__clkbuf_4
*CAP
1 debug_out[2] 0.000357374
2 *165:X 0.000496766
3 *6:12 0.00085414
4 debug_out[2] *12:13 3.48578e-05
5 *6:12 *12:13 0.000409613
6 *6:12 *41:14 1.41244e-05
*RES
1 *165:X *6:12 46.41 
2 *6:12 debug_out[2] 7.99571 
*END

*D_NET *7 0.000844004
*CONN
*P debug_out[3] O
*I *166:X O *D sky130_fd_sc_hd__clkbuf_4
*CAP
1 debug_out[3] 6.44395e-05
2 *166:X 0.000331767
3 *7:10 0.000396206
4 *7:10 *39:24 0
5 debug_out[0] debug_out[3] 5.15919e-05
*RES
1 *166:X *7:10 43.4375 
2 *7:10 debug_out[3] 8.32853 
*END

*D_NET *8 0.00168828
*CONN
*P debug_out[4] O
*I *167:X O *D sky130_fd_sc_hd__clkbuf_4
*CAP
1 debug_out[4] 0.000418539
2 *167:X 0.000229796
3 *8:10 0.000648335
4 *8:10 *167:A 0.000391606
*RES
1 *167:X *8:10 43.1682 
2 *8:10 debug_out[4] 8.84373 
*END

*D_NET *9 0.00136417
*CONN
*P debug_out[5] O
*I *168:X O *D sky130_fd_sc_hd__clkbuf_4
*CAP
1 debug_out[5] 0.000461393
2 *168:X 0.000461393
3 debug_out[5] *163:A 0.000277302
4 debug_out[5] *30:8 6.15365e-05
5 debug_out[5] *38:18 0.000102551
*RES
1 *168:X debug_out[5] 49.3514 
*END

*D_NET *10 0.00104224
*CONN
*P debug_out[6] O
*I *169:X O *D sky130_fd_sc_hd__clkbuf_4
*CAP
1 debug_out[6] 0.000122824
2 *169:X 0.000189937
3 *10:10 0.000312761
4 *10:10 debug_out[7] 4.36401e-06
5 *10:10 *11:8 0.000412359
*RES
1 *169:X *10:10 43.1061 
2 *10:10 debug_out[6] 8.32853 
*END

*D_NET *11 0.00247981
*CONN
*P debug_out[7] O
*I *170:X O *D sky130_fd_sc_hd__clkbuf_4
*CAP
1 debug_out[7] 0.000426296
2 *170:X 0.000570844
3 *11:8 0.000997139
4 *11:8 *169:A 1.47709e-05
5 *11:8 *55:33 5.40337e-05
6 *10:10 debug_out[7] 4.36401e-06
7 *10:10 *11:8 0.000412359
*RES
1 *170:X *11:8 47.1971 
2 *11:8 debug_out[7] 9.40429 
*END

*D_NET *12 0.000998789
*CONN
*P rst I
*I *162:A I *D sky130_fd_sc_hd__clkbuf_4
*CAP
1 rst 0.000277159
2 *162:A 0
3 *12:13 0.000277159
4 debug_out[2] *12:13 3.48578e-05
5 *6:12 *12:13 0.000409613
*RES
1 rst *12:13 28.9672 
2 *12:13 *162:A 23 
*END

*D_NET *13 0.000419314
*CONN
*I *145:D I *D sky130_fd_sc_hd__dfrtp_1
*I *120:Y O *D sky130_fd_sc_hd__inv_2
*CAP
1 *145:D 9.62579e-05
2 *120:Y 5.8763e-05
3 *13:8 0.000155021
4 *145:D *145:RESET_B 1.24362e-05
5 *145:D *39:24 9.04105e-06
6 *145:D *41:73 2.03764e-06
7 *13:8 *49:36 8.57577e-05
*RES
1 *120:Y *13:8 39.2014 
2 *13:8 *145:D 39.1652 
*END

*D_NET *14 0.000946207
*CONN
*I *146:D I *D sky130_fd_sc_hd__dfrtp_1
*I *124:X O *D sky130_fd_sc_hd__clkbuf_1
*CAP
1 *146:D 0
2 *124:X 0.000262418
3 *14:10 0.000262418
4 *14:10 *30:8 0.000278204
5 *14:10 *53:26 0.000143166
*RES
1 *124:X *14:10 42.9093 
2 *14:10 *146:D 38 
*END

*D_NET *15 0.000409124
*CONN
*I *147:D I *D sky130_fd_sc_hd__dfrtp_1
*I *125:Y O *D sky130_fd_sc_hd__xnor2_1
*CAP
1 *147:D 0.000168389
2 *125:Y 0.000168389
3 *147:D *125:A 1.11518e-05
4 *147:D *39:56 6.11945e-05
*RES
1 *125:Y *147:D 48.5479 
*END

*D_NET *16 0.000820227
*CONN
*I *148:D I *D sky130_fd_sc_hd__dfrtp_1
*I *129:X O *D sky130_fd_sc_hd__clkbuf_1
*CAP
1 *148:D 7.75441e-05
2 *129:X 0.000153948
3 *16:8 0.000231492
4 *148:D *39:16 4.46957e-06
5 *16:8 *41:73 5.85725e-05
6 *16:8 *49:36 0.000294201
*RES
1 *129:X *16:8 42.0186 
2 *16:8 *148:D 39.1186 
*END

*D_NET *17 0.000685494
*CONN
*I *149:D I *D sky130_fd_sc_hd__dfrtp_1
*I *130:X O *D sky130_fd_sc_hd__xor2_1
*CAP
1 *149:D 0.00010454
2 *130:X 9.09471e-05
3 *17:8 0.000195488
4 *149:D *32:52 5.88665e-05
5 *149:D *53:37 3.52233e-06
6 *17:8 *32:52 8.29264e-05
7 *17:8 *32:71 7.8141e-05
8 *17:8 *49:65 7.10623e-05
*RES
1 *130:X *17:8 40.2579 
2 *17:8 *149:D 39.595 
*END

*D_NET *18 0.0016268
*CONN
*I *150:D I *D sky130_fd_sc_hd__dfrtp_1
*I *133:Y O *D sky130_fd_sc_hd__nor2_1
*CAP
1 *150:D 0
2 *133:Y 0.000350976
3 *18:10 0.000350976
4 *18:10 *133:A 0.000166734
5 *18:10 *32:33 0.000136958
6 *18:10 *35:10 0.000285649
7 *18:10 *36:10 2.02872e-05
8 *18:10 *49:65 0.00020496
9 *18:10 *52:46 0.000110258
*RES
1 *133:Y *18:10 46.6379 
2 *18:10 *150:D 38 
*END

*D_NET *19 0.000795345
*CONN
*I *151:D I *D sky130_fd_sc_hd__dfrtp_1
*I *134:X O *D sky130_fd_sc_hd__xor2_1
*CAP
1 *151:D 2.85181e-05
2 *134:X 7.71664e-05
3 *19:10 0.000105685
4 *151:D *151:CLK 8.17953e-05
5 *151:D *157:A 5.56356e-05
6 *151:D *55:16 8.88657e-05
7 *19:10 *20:10 0.000205855
8 *19:10 *37:14 6.60665e-05
9 *19:10 *55:33 8.57577e-05
*RES
1 *134:X *19:10 40.755 
2 *19:10 *151:D 39.5743 
*END

*D_NET *20 0.00112508
*CONN
*I *152:D I *D sky130_fd_sc_hd__dfrtp_1
*I *136:X O *D sky130_fd_sc_hd__xor2_1
*CAP
1 *152:D 7.55739e-05
2 *136:X 0.000339064
3 *20:10 0.000414638
4 *152:D *152:CLK 7.87147e-05
5 *20:10 *37:14 1.12349e-05
6 *19:10 *20:10 0.000205855
*RES
1 *136:X *20:10 44.6286 
2 *20:10 *152:D 39.5743 
*END

*D_NET *21 0.000955568
*CONN
*I *145:RESET_B I *D sky130_fd_sc_hd__dfrtp_1
*I *137:Y O *D sky130_fd_sc_hd__inv_2
*CAP
1 *145:RESET_B 8.89505e-05
2 *137:Y 0.000215158
3 *21:10 0.000304109
4 *145:RESET_B *41:73 0.000175043
5 *21:10 *39:16 4.64934e-06
6 *21:10 *39:24 0.000109352
7 *21:10 *49:36 4.587e-05
8 *145:D *145:RESET_B 1.24362e-05
*RES
1 *137:Y *21:10 41.1279 
2 *21:10 *145:RESET_B 16.9782 
*END

*D_NET *22 0.00148309
*CONN
*I *146:RESET_B I *D sky130_fd_sc_hd__dfrtp_1
*I *138:Y O *D sky130_fd_sc_hd__inv_2
*CAP
1 *146:RESET_B 0
2 *138:Y 0.000439207
3 *22:10 0.000439207
4 *22:10 *124:A 0
5 *22:10 *32:12 1.05658e-05
6 *22:10 *41:14 1.63467e-05
7 *22:10 *45:10 3.54728e-05
8 *22:10 *49:10 3.74769e-05
9 *22:10 *50:44 0.000404337
10 *153:A *22:10 0.000100477
*RES
1 *138:Y *22:10 47.1143 
2 *22:10 *146:RESET_B 15 
*END

*D_NET *23 0.000959507
*CONN
*I *147:RESET_B I *D sky130_fd_sc_hd__dfrtp_1
*I *139:Y O *D sky130_fd_sc_hd__inv_2
*CAP
1 *147:RESET_B 5.9655e-05
2 *139:Y 0.00033769
3 *23:10 0.000397345
4 *23:10 *50:8 6.47558e-05
5 *153:A *23:10 0.000100061
*RES
1 *139:Y *23:10 44.1729 
2 *23:10 *147:RESET_B 16.0254 
*END

*D_NET *24 0.000714744
*CONN
*I *148:RESET_B I *D sky130_fd_sc_hd__dfrtp_1
*I *140:Y O *D sky130_fd_sc_hd__inv_2
*CAP
1 *148:RESET_B 0
2 *140:Y 0.000213961
3 *24:10 0.000213961
4 *24:10 *120:A 2.93335e-05
5 *24:10 *41:73 0.000104064
6 *24:10 *48:12 5.34638e-05
7 *24:10 *48:36 9.99618e-05
*RES
1 *140:Y *24:10 42.9921 
2 *24:10 *148:RESET_B 15 
*END

*D_NET *25 0.000409614
*CONN
*I *149:RESET_B I *D sky130_fd_sc_hd__dfrtp_1
*I *141:Y O *D sky130_fd_sc_hd__inv_2
*CAP
1 *149:RESET_B 8.05416e-05
2 *141:Y 6.81137e-05
3 *25:8 0.000148655
4 *25:8 *167:A 3.64337e-05
5 *25:8 *52:27 7.58696e-05
*RES
1 *141:Y *25:8 39.5536 
2 *25:8 *149:RESET_B 16.0254 
*END

*D_NET *26 0.000444781
*CONN
*I *150:RESET_B I *D sky130_fd_sc_hd__dfrtp_1
*I *142:Y O *D sky130_fd_sc_hd__inv_2
*CAP
1 *150:RESET_B 3.0566e-05
2 *142:Y 7.95052e-05
3 *26:8 0.000110071
4 *150:RESET_B *41:49 2.15102e-05
5 *150:RESET_B *53:8 9.28703e-05
6 *26:8 *41:41 0.000110258
*RES
1 *142:Y *26:8 39.5536 
2 *26:8 *150:RESET_B 16.0254 
*END

*D_NET *27 0.000325445
*CONN
*I *151:RESET_B I *D sky130_fd_sc_hd__dfrtp_1
*I *143:Y O *D sky130_fd_sc_hd__inv_2
*CAP
1 *151:RESET_B 0
2 *143:Y 0.00014746
3 *27:8 0.00014746
4 *27:8 *53:47 3.05248e-05
*RES
1 *143:Y *27:8 40.61 
2 *27:8 *151:RESET_B 15 
*END

*D_NET *28 0.000937543
*CONN
*I *152:RESET_B I *D sky130_fd_sc_hd__dfrtp_1
*I *144:Y O *D sky130_fd_sc_hd__inv_2
*CAP
1 *152:RESET_B 0
2 *144:Y 0.000165487
3 *28:8 0.000165487
4 *28:8 *144:A 0.000312436
5 *28:8 *40:10 3.673e-05
6 *28:8 *40:23 0.000190742
7 *28:8 *41:63 6.66613e-05
*RES
1 *144:Y *28:8 43.075 
2 *28:8 *152:RESET_B 15 
*END

*D_NET *29 0.00279049
*CONN
*I *123:A I *D sky130_fd_sc_hd__and2_1
*I *125:B I *D sky130_fd_sc_hd__xnor2_1
*I *121:Y O *D sky130_fd_sc_hd__nand2_1
*CAP
1 *123:A 0.000217592
2 *125:B 0.000228651
3 *121:Y 0.000328453
4 *29:8 0.000774696
5 *123:A *155:A 0.00018425
6 *123:A *49:65 0.000138747
7 *125:B *127:A2 5.78554e-05
8 *125:B *127:B1 6.10551e-06
9 *125:B *155:A 0.000145008
10 *125:B *38:18 0.00034151
11 *125:B *49:65 0.000208444
12 *125:B *53:26 0.000141029
13 *29:8 *38:8 3.82058e-06
14 *29:8 *48:48 1.43261e-05
*RES
1 *121:Y *29:8 41.9564 
2 *29:8 *125:B 44.4836 
3 *29:8 *123:A 42.4329 
*END

*D_NET *30 0.0052038
*CONN
*I *123:B I *D sky130_fd_sc_hd__and2_1
*I *122:X O *D sky130_fd_sc_hd__or2_1
*CAP
1 *123:B 0
2 *122:X 0.000797497
3 *30:14 0.000577912
4 *30:8 0.00137541
5 *30:8 *122:A 0.000346559
6 *30:8 *163:A 7.92499e-05
7 *30:8 *38:18 0.000128305
8 *30:8 *39:10 0.000191255
9 *30:14 *124:A 0.000801835
10 *30:14 *31:10 8.43091e-05
11 *30:14 *53:26 0.000340544
12 debug_out[5] *30:8 6.15365e-05
13 *4:14 *30:8 0.000141185
14 *14:10 *30:8 0.000278204
*RES
1 *122:X *30:8 41.7464 
2 *30:8 *30:14 44.2307 
3 *30:14 *123:B 23 
*END

*D_NET *31 0.00221512
*CONN
*I *124:A I *D sky130_fd_sc_hd__clkbuf_1
*I *123:X O *D sky130_fd_sc_hd__and2_1
*CAP
1 *124:A 0.000507002
2 *123:X 0.000124108
3 *31:10 0.000631111
4 *124:A *126:D 4.36457e-05
5 *124:A *32:12 2.61527e-06
6 *124:A *45:10 2.04934e-05
7 *22:10 *124:A 0
8 *30:14 *124:A 0.000801835
9 *30:14 *31:10 8.43091e-05
*RES
1 *123:X *31:10 41.0554 
2 *31:10 *124:A 49.8589 
*END

*D_NET *32 0.00766659
*CONN
*I *132:A2 I *D sky130_fd_sc_hd__a21oi_1
*I *130:B I *D sky130_fd_sc_hd__xor2_1
*I *135:D I *D sky130_fd_sc_hd__and4_1
*I *131:C I *D sky130_fd_sc_hd__and3_1
*I *128:A_N I *D sky130_fd_sc_hd__and2b_1
*I *126:X O *D sky130_fd_sc_hd__and4_2
*CAP
1 *132:A2 0
2 *130:B 0
3 *135:D 0.000487164
4 *131:C 6.80156e-05
5 *128:A_N 3.60901e-05
6 *126:X 0.000608242
7 *32:84 0.000229429
8 *32:71 0.000329701
9 *32:52 0.000818254
10 *32:33 0.000867822
11 *32:14 0.000605079
12 *32:12 0.000608242
13 *128:A_N *38:18 1.73824e-05
14 *128:A_N *48:48 0
15 *135:D *135:A 0.000313072
16 *135:D *135:C 5.56279e-05
17 *135:D *158:A 6.07623e-05
18 *135:D *44:8 2.46906e-05
19 *135:D *52:29 0.000167036
20 *135:D *53:47 0.000100061
21 *32:12 *126:D 0.000278095
22 *32:12 *51:25 0.00028418
23 *32:33 *155:A 0.000294495
24 *32:33 *35:10 5.86204e-05
25 *32:33 *38:18 0.000123852
26 *32:33 *40:38 0.000125823
27 *32:33 *49:65 5.89952e-05
28 *32:52 *149:CLK 0.000222923
29 *32:52 *49:65 7.66914e-06
30 *32:52 *52:46 4.08219e-05
31 *32:52 *53:37 1.96141e-05
32 *32:71 *52:29 5.42433e-05
33 *32:84 *130:A 0.000146984
34 *32:84 *46:19 0.000166129
35 *32:84 *52:29 1.73995e-05
36 *124:A *32:12 2.61527e-06
37 *149:D *32:52 5.88665e-05
38 *17:8 *32:52 8.29264e-05
39 *17:8 *32:71 7.8141e-05
40 *18:10 *32:33 0.000136958
41 *22:10 *32:12 1.05658e-05
*RES
1 *126:X *32:12 47.5792 
2 *32:12 *32:14 8 
3 *32:14 *128:A_N 38.6732 
4 *32:14 *32:33 27.6254 
5 *32:33 *131:C 24.4293 
6 *32:33 *32:52 20.6757 
7 *32:52 *135:D 45.9336 
8 *32:52 *32:71 17.2993 
9 *32:71 *130:B 23 
10 *32:71 *32:84 35.0129 
11 *32:84 *132:A2 23 
*END

*D_NET *33 0.000319242
*CONN
*I *128:B I *D sky130_fd_sc_hd__and2b_1
*I *127:X O *D sky130_fd_sc_hd__a31o_1
*CAP
1 *128:B 4.05542e-05
2 *127:X 4.05542e-05
3 *128:B *48:57 0.000191417
4 *128:B *49:26 4.67168e-05
*RES
1 *127:X *128:B 48.0507 
*END

*D_NET *34 0.00104703
*CONN
*I *129:A I *D sky130_fd_sc_hd__clkbuf_1
*I *128:X O *D sky130_fd_sc_hd__and2b_1
*CAP
1 *129:A 0
2 *128:X 0.000298131
3 *34:14 0.000298131
4 *34:14 *120:A 0.000150823
5 *34:14 *48:36 0.000231039
6 *34:14 *48:57 3.64866e-05
7 *34:14 *49:26 3.24148e-05
*RES
1 *128:X *34:14 30.4986 
2 *34:14 *129:A 23 
*END

*D_NET *35 0.00310777
*CONN
*I *133:A I *D sky130_fd_sc_hd__nor2_1
*I *134:B I *D sky130_fd_sc_hd__xor2_1
*I *131:X O *D sky130_fd_sc_hd__and3_1
*CAP
1 *133:A 0.000191189
2 *134:B 0.000403925
3 *131:X 0.000234826
4 *35:10 0.000829939
5 *133:A *36:10 7.44159e-05
6 *133:A *49:65 5.71002e-06
7 *134:B *158:A 7.12002e-05
8 *134:B *37:14 3.46951e-05
9 *134:B *44:8 0.000644258
10 *35:10 *149:CLK 5.3304e-05
11 *35:10 *53:47 5.3304e-05
12 *18:10 *133:A 0.000166734
13 *18:10 *35:10 0.000285649
14 *32:33 *35:10 5.86204e-05
*RES
1 *131:X *35:10 42.64 
2 *35:10 *134:B 47.2179 
3 *35:10 *133:A 42.3293 
*END

*D_NET *36 0.00129712
*CONN
*I *133:B I *D sky130_fd_sc_hd__nor2_1
*I *132:Y O *D sky130_fd_sc_hd__a21oi_1
*CAP
1 *133:B 0
2 *132:Y 0.000410864
3 *36:10 0.000410864
4 *36:10 *132:B1 1.3523e-05
5 *36:10 *49:65 0.000367166
6 *133:A *36:10 7.44159e-05
7 *18:10 *36:10 2.02872e-05
*RES
1 *132:Y *36:10 31.7621 
2 *36:10 *133:B 23 
*END

*D_NET *37 0.00120228
*CONN
*I *136:B I *D sky130_fd_sc_hd__xor2_1
*I *135:X O *D sky130_fd_sc_hd__and4_1
*CAP
1 *136:B 0
2 *135:X 0.000465256
3 *37:14 0.000465256
4 *37:14 *44:8 0.000159772
5 *134:B *37:14 3.46951e-05
6 *19:10 *37:14 6.60665e-05
7 *20:10 *37:14 1.12349e-05
*RES
1 *135:X *37:14 31.8036 
2 *37:14 *136:B 23 
*END

*D_NET *38 0.00338076
*CONN
*I *155:A I *D sky130_fd_sc_hd__clkbuf_16
*I *154:A I *D sky130_fd_sc_hd__clkbuf_16
*I *153:X O *D sky130_fd_sc_hd__clkbuf_16
*CAP
1 *155:A 0.00015374
2 *154:A 0
3 *153:X 6.09728e-05
4 *38:18 0.000511756
5 *38:8 0.000726468
6 *155:A *49:65 1.16455e-05
7 *38:18 *163:A 7.12652e-05
8 *38:18 *39:56 0.000113244
9 *38:18 *51:8 0
10 *38:18 *53:26 0.000266802
11 debug_out[5] *38:18 0.000102551
12 *123:A *155:A 0.00018425
13 *125:B *155:A 0.000145008
14 *125:B *38:18 0.00034151
15 *128:A_N *38:18 1.73824e-05
16 *4:14 *38:18 0.000123689
17 *29:8 *38:8 3.82058e-06
18 *30:8 *38:18 0.000128305
19 *32:33 *155:A 0.000294495
20 *32:33 *38:18 0.000123852
*RES
1 *153:X *38:8 38.6214 
2 *38:8 *38:18 29.0029 
3 *38:18 *154:A 23 
4 *38:8 *155:A 43.1164 
*END

*D_NET *39 0.00416421
*CONN
*I *146:CLK I *D sky130_fd_sc_hd__dfrtp_1
*I *147:CLK I *D sky130_fd_sc_hd__dfrtp_1
*I *148:CLK I *D sky130_fd_sc_hd__dfrtp_1
*I *145:CLK I *D sky130_fd_sc_hd__dfrtp_1
*I *154:X O *D sky130_fd_sc_hd__clkbuf_16
*CAP
1 *146:CLK 2.07138e-05
2 *147:CLK 0
3 *148:CLK 0
4 *145:CLK 0
5 *154:X 0.000195706
6 *39:56 0.000333622
7 *39:40 0.000804438
8 *39:24 0.000226514
9 *39:16 0.000626226
10 *39:10 0.00104552
11 *39:10 *48:12 3.54728e-05
12 *39:24 *41:73 0.000152662
13 *39:24 *49:36 3.70431e-05
14 *39:40 *48:12 2.4769e-05
15 *39:40 *49:36 0
16 *39:56 *125:A 0.000168322
17 *145:D *39:24 9.04105e-06
18 *147:D *39:56 6.11945e-05
19 *148:D *39:16 4.46957e-06
20 *7:10 *39:24 0
21 *21:10 *39:16 4.64934e-06
22 *21:10 *39:24 0.000109352
23 *30:8 *39:10 0.000191255
24 *38:18 *39:56 0.000113244
*RES
1 *154:X *39:10 41.2521 
2 *39:10 *39:16 20.2821 
3 *39:16 *39:24 34.8886 
4 *39:24 *145:CLK 23 
5 *39:16 *148:CLK 23 
6 *39:10 *39:40 22.6643 
7 *39:40 *39:56 37.0221 
8 *39:56 *147:CLK 23 
9 *39:40 *146:CLK 23.6214 
*END

*D_NET *40 0.00419371
*CONN
*I *149:CLK I *D sky130_fd_sc_hd__dfrtp_1
*I *150:CLK I *D sky130_fd_sc_hd__dfrtp_1
*I *151:CLK I *D sky130_fd_sc_hd__dfrtp_1
*I *152:CLK I *D sky130_fd_sc_hd__dfrtp_1
*I *155:X O *D sky130_fd_sc_hd__clkbuf_16
*CAP
1 *149:CLK 0.000115207
2 *150:CLK 0
3 *151:CLK 0.00017875
4 *152:CLK 0.000360324
5 *155:X 0.000243898
6 *40:38 0.000137318
7 *40:32 0.000530516
8 *40:23 0.000550814
9 *40:10 0.000698295
10 *149:CLK *53:37 7.42295e-05
11 *149:CLK *53:47 3.44001e-05
12 *149:CLK *54:14 3.7122e-06
13 *151:CLK *55:16 1.34914e-05
14 *152:CLK *55:10 7.87147e-05
15 *40:10 *41:63 6.10802e-05
16 *40:23 *55:10 3.48854e-05
17 *40:32 *53:47 0.0001934
18 *40:32 *54:14 9.46401e-05
19 *151:D *151:CLK 8.17953e-05
20 *152:D *152:CLK 7.87147e-05
21 *28:8 *40:10 3.673e-05
22 *28:8 *40:23 0.000190742
23 *32:33 *40:38 0.000125823
24 *32:52 *149:CLK 0.000222923
25 *35:10 *149:CLK 5.3304e-05
*RES
1 *155:X *40:10 41.8321 
2 *40:10 *152:CLK 44.815 
3 *40:10 *40:23 17.61 
4 *40:23 *151:CLK 26.48 
5 *40:23 *40:32 5.86214 
6 *40:32 *40:38 32.61 
7 *40:38 *150:CLK 23 
8 *40:32 *149:CLK 26.0036 
*END

*D_NET *41 0.0101544
*CONN
*I *141:A I *D sky130_fd_sc_hd__inv_2
*I *143:A I *D sky130_fd_sc_hd__inv_2
*I *144:A I *D sky130_fd_sc_hd__inv_2
*I *140:A I *D sky130_fd_sc_hd__inv_2
*I *137:A I *D sky130_fd_sc_hd__inv_2
*I *142:A I *D sky130_fd_sc_hd__inv_2
*I *139:A I *D sky130_fd_sc_hd__inv_2
*I *138:A I *D sky130_fd_sc_hd__inv_2
*I *162:X O *D sky130_fd_sc_hd__clkbuf_4
*CAP
1 *141:A 0.000317613
2 *143:A 5.79499e-05
3 *144:A 0.000192344
4 *140:A 0
5 *137:A 0
6 *142:A 0
7 *139:A 1.86059e-05
8 *138:A 0
9 *162:X 0.000536593
10 *41:73 0.000587505
11 *41:63 0.00122912
12 *41:53 0.000943393
13 *41:49 0.00108089
14 *41:41 0.0014526
15 *41:32 0.000382988
16 *41:18 7.07832e-05
17 *41:14 0.000750278
18 *141:A *160:A 1.10373e-05
19 *141:A *47:8 0.000352459
20 *141:A *52:27 5.68958e-05
21 *141:A *52:29 4.96303e-05
22 *144:A *53:47 0.000104516
23 *41:14 *49:10 0.000433088
24 *41:14 *50:44 0.000105283
25 *41:41 *47:8 1.0092e-05
26 *41:49 *161:A 3.7122e-06
27 *41:49 *53:8 2.43316e-05
28 *41:53 *55:10 0.000144501
29 *41:73 *48:36 0
30 *41:73 *48:48 0
31 *41:73 *49:36 0
32 *145:D *41:73 2.03764e-06
33 *145:RESET_B *41:73 0.000175043
34 *150:RESET_B *41:49 2.15102e-05
35 *153:A *139:A 4.44329e-05
36 *153:A *41:18 9.89901e-05
37 *6:12 *41:14 1.41244e-05
38 *16:8 *41:73 5.85725e-05
39 *22:10 *41:14 1.63467e-05
40 *24:10 *41:73 0.000104064
41 *26:8 *41:41 0.000110258
42 *28:8 *144:A 0.000312436
43 *28:8 *41:63 6.66613e-05
44 *39:24 *41:73 0.000152662
45 *40:10 *41:63 6.10802e-05
*RES
1 *162:X *41:14 49.745 
2 *41:14 *41:18 16.0979 
3 *41:18 *138:A 23 
4 *41:18 *139:A 23.6214 
5 *41:14 *41:32 3.31429 
6 *41:32 *142:A 38 
7 *41:32 *41:41 3.66643 
8 *41:41 *41:49 27.2214 
9 *41:49 *41:53 17.5271 
10 *41:53 *41:63 11.9107 
11 *41:63 *41:73 39.8807 
12 *41:73 *137:A 38 
13 *41:63 *140:A 38 
14 *41:53 *144:A 43.075 
15 *41:49 *143:A 24.4707 
16 *41:41 *141:A 45.7679 
*END

*D_NET *42 0.000577062
*CONN
*I *120:A I *D sky130_fd_sc_hd__inv_2
*I *156:X O *D sky130_fd_sc_hd__dlygate4sd3_1
*CAP
1 *120:A 0.000198453
2 *156:X 0.000198453
3 *24:10 *120:A 2.93335e-05
4 *34:14 *120:A 0.000150823
*RES
1 *156:X *120:A 49.9771 
*END

*D_NET *43 0.000494155
*CONN
*I *136:A I *D sky130_fd_sc_hd__xor2_1
*I *157:X O *D sky130_fd_sc_hd__dlygate4sd3_1
*CAP
1 *136:A 0
2 *157:X 0.000247078
3 *43:10 0.000247078
*RES
1 *157:X *43:10 41.48 
2 *43:10 *136:A 38 
*END

*D_NET *44 0.00139013
*CONN
*I *134:A I *D sky130_fd_sc_hd__xor2_1
*I *158:X O *D sky130_fd_sc_hd__dlygate4sd3_1
*CAP
1 *134:A 0
2 *158:X 0.000151424
3 *44:8 0.000151424
4 *44:8 *135:C 5.56279e-05
5 *44:8 *158:A 0.000189437
6 *44:8 *53:47 1.34995e-05
7 *134:B *44:8 0.000644258
8 *135:D *44:8 2.46906e-05
9 *37:14 *44:8 0.000159772
*RES
1 *158:X *44:8 30.3121 
2 *44:8 *134:A 23 
*END

*D_NET *45 0.00154449
*CONN
*I *125:A I *D sky130_fd_sc_hd__xnor2_1
*I *159:X O *D sky130_fd_sc_hd__dlygate4sd3_1
*CAP
1 *125:A 0.000480859
2 *159:X 0.000148083
3 *45:10 0.000628942
4 *45:10 *50:18 5.11621e-05
5 *124:A *45:10 2.04934e-05
6 *147:D *125:A 1.11518e-05
7 *22:10 *45:10 3.54728e-05
8 *39:56 *125:A 0.000168322
*RES
1 *159:X *45:10 40.2993 
2 *45:10 *125:A 45.2086 
*END

*D_NET *46 0.000893403
*CONN
*I *132:A1 I *D sky130_fd_sc_hd__a21oi_1
*I *130:A I *D sky130_fd_sc_hd__xor2_1
*I *160:X O *D sky130_fd_sc_hd__dlygate4sd3_1
*CAP
1 *132:A1 0
2 *130:A 9.03593e-05
3 *160:X 0
4 *46:19 0.000104078
5 *46:4 0.000194437
6 *130:A *52:29 0.000191417
7 *32:84 *130:A 0.000146984
8 *32:84 *46:19 0.000166129
*RES
1 *160:X *46:4 23 
2 *46:4 *130:A 26.2521 
3 *46:4 *46:19 32.2579 
4 *46:19 *132:A1 23 
*END

*D_NET *47 0.00131931
*CONN
*I *132:B1 I *D sky130_fd_sc_hd__a21oi_1
*I *161:X O *D sky130_fd_sc_hd__dlygate4sd3_1
*CAP
1 *132:B1 8.88736e-05
2 *161:X 0.000382742
3 *47:8 0.000471616
4 *141:A *47:8 0.000352459
5 *36:10 *132:B1 1.3523e-05
6 *41:41 *47:8 1.0092e-05
*RES
1 *161:X *47:8 45.8921 
2 *47:8 *132:B1 39.5743 
*END

*D_NET *48 0.00728949
*CONN
*I *156:A I *D sky130_fd_sc_hd__dlygate4sd3_1
*I *126:A I *D sky130_fd_sc_hd__and4_2
*I *127:A1 I *D sky130_fd_sc_hd__a31o_1
*I *121:A I *D sky130_fd_sc_hd__nand2_1
*I *163:A I *D sky130_fd_sc_hd__clkbuf_4
*I *122:A I *D sky130_fd_sc_hd__or2_1
*I *145:Q O *D sky130_fd_sc_hd__dfrtp_1
*CAP
1 *156:A 0
2 *126:A 0.000151074
3 *127:A1 4.94279e-05
4 *121:A 0
5 *163:A 0.000697615
6 *122:A 0.000251515
7 *145:Q 0.000200251
8 *48:57 0.000679375
9 *48:48 0.000254639
10 *48:36 0.00101662
11 *48:12 0.00123238
12 *48:8 0.000766614
13 *122:A *122:B 0.000189176
14 *126:A *127:A3 2.94446e-05
15 *126:A *127:B1 7.44299e-06
16 *126:A *50:18 2.93104e-06
17 *127:A1 *127:A3 8.05158e-06
18 *163:A *53:26 5.82853e-05
19 *48:12 *49:36 0
20 *48:36 *51:8 0
21 *48:48 *49:26 0.000114566
22 *48:48 *49:36 5.56279e-05
23 *48:57 *127:A3 2.00089e-05
24 *48:57 *49:26 1.10022e-05
25 debug_out[5] *163:A 0.000277302
26 *128:A_N *48:48 0
27 *128:B *48:57 0.000191417
28 *4:14 *163:A 3.21294e-05
29 *24:10 *48:12 5.34638e-05
30 *24:10 *48:36 9.99618e-05
31 *29:8 *48:48 1.43261e-05
32 *30:8 *122:A 0.000346559
33 *30:8 *163:A 7.92499e-05
34 *34:14 *48:36 0.000231039
35 *34:14 *48:57 3.64866e-05
36 *38:18 *163:A 7.12652e-05
37 *39:10 *48:12 3.54728e-05
38 *39:40 *48:12 2.4769e-05
39 *41:73 *48:36 0
40 *41:73 *48:48 0
*RES
1 *145:Q *48:8 40.5271 
2 *48:8 *48:12 20.075 
3 *48:12 *122:A 29.815 
4 *48:12 *163:A 34.02 
5 *48:8 *48:36 21.1936 
6 *48:36 *48:48 34.8264 
7 *48:48 *121:A 23 
8 *48:36 *48:57 6.71143 
9 *48:57 *127:A1 24.2014 
10 *48:57 *126:A 25.4236 
11 *48:36 *156:A 23 
*END

*D_NET *49 0.0101791
*CONN
*I *126:B I *D sky130_fd_sc_hd__and4_2
*I *164:A I *D sky130_fd_sc_hd__buf_2
*I *127:A2 I *D sky130_fd_sc_hd__a31o_1
*I *121:B I *D sky130_fd_sc_hd__nand2_1
*I *122:B I *D sky130_fd_sc_hd__or2_1
*I *146:Q O *D sky130_fd_sc_hd__dfrtp_1
*CAP
1 *126:B 0
2 *164:A 0
3 *127:A2 5.15526e-05
4 *121:B 0
5 *122:B 8.86966e-05
6 *146:Q 0.000233646
7 *49:65 0.000865587
8 *49:50 0.000917139
9 *49:36 0.00112635
10 *49:26 0.00159343
11 *49:16 0.000758626
12 *49:14 0.000517115
13 *49:10 0.000547909
14 *127:A2 *53:26 0
15 *49:10 *50:44 0.000355581
16 *49:14 *127:A3 2.02872e-05
17 *49:14 *50:14 1.59094e-05
18 *49:14 *50:18 8.43287e-05
19 *49:16 *127:A3 0.000219477
20 *49:26 *127:A3 5.3304e-05
21 *49:36 *166:A 0
22 *49:65 *52:46 0.000108129
23 debug_out[1] *49:65 0.000106808
24 *122:A *122:B 0.000189176
25 *123:A *49:65 0.000138747
26 *125:B *127:A2 5.78554e-05
27 *125:B *49:65 0.000208444
28 *128:B *49:26 4.67168e-05
29 *133:A *49:65 5.71002e-06
30 *155:A *49:65 1.16455e-05
31 *13:8 *49:36 8.57577e-05
32 *16:8 *49:36 0.000294201
33 *17:8 *49:65 7.10623e-05
34 *18:10 *49:65 0.00020496
35 *21:10 *49:36 4.587e-05
36 *22:10 *49:10 3.74769e-05
37 *32:33 *49:65 5.89952e-05
38 *32:52 *49:65 7.66914e-06
39 *34:14 *49:26 3.24148e-05
40 *36:10 *49:65 0.000367166
41 *39:24 *49:36 3.70431e-05
42 *39:40 *49:36 0
43 *41:14 *49:10 0.000433088
44 *41:73 *49:36 0
45 *48:12 *49:36 0
46 *48:48 *49:26 0.000114566
47 *48:48 *49:36 5.56279e-05
48 *48:57 *49:26 1.10022e-05
*RES
1 *146:Q *49:10 44.8771 
2 *49:10 *49:14 18.9564 
3 *49:14 *49:16 3.00357 
4 *49:16 *49:26 37.6643 
5 *49:26 *49:36 48.7257 
6 *49:36 *122:B 25.0507 
7 *49:26 *121:B 23 
8 *49:16 *49:50 15 
9 *49:50 *127:A2 38.8493 
10 *49:50 *49:65 35.3 
11 *49:65 *164:A 23 
12 *49:14 *126:B 23 
*END

*D_NET *50 0.00371681
*CONN
*I *159:A I *D sky130_fd_sc_hd__dlygate4sd3_1
*I *165:A I *D sky130_fd_sc_hd__clkbuf_4
*I *126:C I *D sky130_fd_sc_hd__and4_2
*I *127:A3 I *D sky130_fd_sc_hd__a31o_1
*I *147:Q O *D sky130_fd_sc_hd__dfrtp_1
*CAP
1 *159:A 0
2 *165:A 0
3 *126:C 0
4 *127:A3 0.000204714
5 *147:Q 8.86654e-05
6 *50:44 0.000360303
7 *50:18 0.000375017
8 *50:14 0.000707677
9 *50:12 0.00031379
10 *50:8 0.000225384
11 *127:A3 *127:B1 6.39489e-06
12 *126:A *127:A3 2.94446e-05
13 *126:A *50:18 2.93104e-06
14 *127:A1 *127:A3 8.05158e-06
15 *22:10 *50:44 0.000404337
16 *23:10 *50:8 6.47558e-05
17 *41:14 *50:44 0.000105283
18 *45:10 *50:18 5.11621e-05
19 *48:57 *127:A3 2.00089e-05
20 *49:10 *50:44 0.000355581
21 *49:14 *127:A3 2.02872e-05
22 *49:14 *50:14 1.59094e-05
23 *49:14 *50:18 8.43287e-05
24 *49:16 *127:A3 0.000219477
25 *49:26 *127:A3 5.3304e-05
*RES
1 *147:Q *50:8 39.9057 
2 *50:8 *50:12 17.0507 
3 *50:12 *50:14 2.52714 
4 *50:14 *50:18 3.50071 
5 *50:18 *127:A3 28.0957 
6 *50:18 *126:C 23 
7 *50:14 *50:44 40.1707 
8 *50:44 *165:A 23 
9 *50:12 *159:A 23 
*END

*D_NET *51 0.00478782
*CONN
*I *126:D I *D sky130_fd_sc_hd__and4_2
*I *127:B1 I *D sky130_fd_sc_hd__a31o_1
*I *166:A I *D sky130_fd_sc_hd__clkbuf_4
*I *148:Q O *D sky130_fd_sc_hd__dfrtp_1
*CAP
1 *126:D 0.00027646
2 *127:B1 3.41072e-05
3 *166:A 0.00106065
4 *148:Q 0.00025425
5 *51:25 0.000761972
6 *51:10 0.00151205
7 *51:8 0.00025425
8 *127:B1 *53:26 8.21456e-06
9 debug_out[0] *166:A 0
10 *124:A *126:D 4.36457e-05
11 *125:B *127:B1 6.10551e-06
12 *126:A *127:B1 7.44299e-06
13 *127:A3 *127:B1 6.39489e-06
14 *4:14 *51:25 0
15 *32:12 *126:D 0.000278095
16 *32:12 *51:25 0.00028418
17 *38:18 *51:8 0
18 *48:36 *51:8 0
19 *49:36 *166:A 0
*RES
1 *148:Q *51:8 42.5468 
2 *51:8 *51:10 8 
3 *51:10 *166:A 48.4465 
4 *51:10 *51:25 0.914667 
5 *51:25 *127:B1 46.4712 
6 *51:25 *126:D 47.2444 
*END

*D_NET *52 0.00459749
*CONN
*I *160:A I *D sky130_fd_sc_hd__dlygate4sd3_1
*I *131:A I *D sky130_fd_sc_hd__and3_1
*I *135:A I *D sky130_fd_sc_hd__and4_1
*I *167:A I *D sky130_fd_sc_hd__clkbuf_4
*I *149:Q O *D sky130_fd_sc_hd__dfrtp_1
*CAP
1 *160:A 1.94148e-05
2 *131:A 0
3 *135:A 7.77855e-05
4 *167:A 0.000452535
5 *149:Q 0
6 *52:46 0.000125253
7 *52:29 0.000639596
8 *52:27 0.00064697
9 *52:6 0.000643533
10 *135:A *158:A 0.000315254
11 *52:29 *158:A 5.3304e-05
12 *130:A *52:29 0.000191417
13 *135:D *135:A 0.000313072
14 *135:D *52:29 0.000167036
15 *141:A *160:A 1.10373e-05
16 *141:A *52:27 5.68958e-05
17 *141:A *52:29 4.96303e-05
18 *8:10 *167:A 0.000391606
19 *18:10 *52:46 0.000110258
20 *25:8 *167:A 3.64337e-05
21 *25:8 *52:27 7.58696e-05
22 *32:52 *52:46 4.08219e-05
23 *32:71 *52:29 5.42433e-05
24 *32:84 *52:29 1.73995e-05
25 *49:65 *52:46 0.000108129
*RES
1 *149:Q *52:6 38 
2 *52:6 *167:A 47.425 
3 *52:6 *52:27 18.6043 
4 *52:27 *52:29 8.24429 
5 *52:29 *135:A 26.48 
6 *52:29 *52:46 32.6721 
7 *52:46 *131:A 23 
8 *52:27 *160:A 23.4971 
*END

*D_NET *53 0.00742719
*CONN
*I *161:A I *D sky130_fd_sc_hd__dlygate4sd3_1
*I *131:B I *D sky130_fd_sc_hd__and3_1
*I *135:B I *D sky130_fd_sc_hd__and4_1
*I *168:A I *D sky130_fd_sc_hd__clkbuf_4
*I *150:Q O *D sky130_fd_sc_hd__dfrtp_1
*CAP
1 *161:A 0.000249962
2 *131:B 0
3 *135:B 0
4 *168:A 0
5 *150:Q 0
6 *53:47 0.000629913
7 *53:37 0.00106356
8 *53:26 0.00110775
9 *53:8 0.0018925
10 *53:4 0.000601073
11 *53:47 *54:14 2.53053e-05
12 *125:B *53:26 0.000141029
13 *127:A2 *53:26 0
14 *127:B1 *53:26 8.21456e-06
15 *135:D *53:47 0.000100061
16 *144:A *53:47 0.000104516
17 *149:CLK *53:37 7.42295e-05
18 *149:CLK *53:47 3.44001e-05
19 *149:D *53:37 3.52233e-06
20 *150:RESET_B *53:8 9.28703e-05
21 *163:A *53:26 5.82853e-05
22 *4:14 *53:26 0.000151103
23 *14:10 *53:26 0.000143166
24 *27:8 *53:47 3.05248e-05
25 *30:14 *53:26 0.000340544
26 *32:52 *53:37 1.96141e-05
27 *35:10 *53:47 5.3304e-05
28 *38:18 *53:26 0.000266802
29 *40:32 *53:47 0.0001934
30 *41:49 *161:A 3.7122e-06
31 *41:49 *53:8 2.43316e-05
32 *44:8 *53:47 1.34995e-05
*RES
1 *150:Q *53:4 23 
2 *53:4 *53:8 19.4329 
3 *53:8 *53:26 36.0457 
4 *53:26 *168:A 23 
5 *53:8 *53:37 21.4421 
6 *53:37 *53:47 39.9221 
7 *53:47 *135:B 23 
8 *53:37 *131:B 23 
9 *53:4 *161:A 27.3293 
*END

*D_NET *54 0.00337108
*CONN
*I *169:A I *D sky130_fd_sc_hd__clkbuf_4
*I *158:A I *D sky130_fd_sc_hd__dlygate4sd3_1
*I *135:C I *D sky130_fd_sc_hd__and4_1
*I *151:Q O *D sky130_fd_sc_hd__dfrtp_1
*CAP
1 *169:A 0.00053785
2 *158:A 0.000141668
3 *135:C 1.56031e-05
4 *151:Q 0.000403914
5 *54:16 0.000157272
6 *54:14 0.000941764
7 *169:A *55:33 0.000233367
8 *134:B *158:A 7.12002e-05
9 *135:A *158:A 0.000315254
10 *135:D *135:C 5.56279e-05
11 *135:D *158:A 6.07623e-05
12 *149:CLK *54:14 3.7122e-06
13 *11:8 *169:A 1.47709e-05
14 *40:32 *54:14 9.46401e-05
15 *44:8 *135:C 5.56279e-05
16 *44:8 *158:A 0.000189437
17 *52:29 *158:A 5.3304e-05
18 *53:47 *54:14 2.53053e-05
*RES
1 *151:Q *54:14 43.6757 
2 *54:14 *54:16 15 
3 *54:16 *135:C 23.6214 
4 *54:16 *158:A 27.9093 
5 *54:14 *169:A 48.2743 
*END

*D_NET *55 0.00294554
*CONN
*I *170:A I *D sky130_fd_sc_hd__clkbuf_4
*I *157:A I *D sky130_fd_sc_hd__dlygate4sd3_1
*I *152:Q O *D sky130_fd_sc_hd__dfrtp_1
*CAP
1 *170:A 0
2 *157:A 0.000123197
3 *152:Q 0.000416044
4 *55:33 0.000417043
5 *55:16 0.000662097
6 *55:10 0.000537902
7 *151:CLK *55:16 1.34914e-05
8 *151:D *157:A 5.56356e-05
9 *151:D *55:16 8.88657e-05
10 *152:CLK *55:10 7.87147e-05
11 *169:A *55:33 0.000233367
12 *11:8 *55:33 5.40337e-05
13 *19:10 *55:33 8.57577e-05
14 *40:23 *55:10 3.48854e-05
15 *41:53 *55:10 0.000144501
*RES
1 *152:Q *55:10 44.5664 
2 *55:10 *55:16 17.0714 
3 *55:16 *157:A 24.9471 
4 *55:16 *55:33 37.6021 
5 *55:33 *170:A 23 
*END
